 C  H  O                                
   1.00000000000000     
    14.7630099300000008    0.0053200400000000   -0.0024942400000000
     0.0070480700000000   19.0443932300000007   -0.0030267900000000
    -0.0078782000000000   -0.0046446500000000   16.8297224800000009
   C    H    O 
    48    12     2
Direct
  0.0021292731434213  0.5026613562770500  0.3122570605415966
  0.0856115503005368  0.5011127287708138  0.3527540874969432
  0.1689365164002152  0.5010041336489347  0.3120666040068372
  0.2523244921747970  0.4992813081788315  0.3527068380192022
  0.3357431552438375  0.4997371460717071  0.3121808951772453
  0.4190147606139025  0.4982745295268510  0.3529646956815959
  0.5024712750233694  0.4998599371165116  0.3125442225412541
  0.5856643729806238  0.4987184157024234  0.3534205503861069
  0.6689163006388720  0.5012318142433144  0.3127834323794684
  0.7522676230458756  0.5005982703606802  0.3534873567025645
  0.8353746848378212  0.5028346036331457  0.3126427245042246
  0.9189094058783189  0.5019864490897251  0.3530701717018868
  0.0857269934285584  0.4994650857716292  0.4387195823605952
  0.1690884581373082  0.4975117580916323  0.4807978895217009
  0.2523830938249799  0.4971998969483579  0.4386561145043940
  0.3356863818852049  0.4947260221961559  0.4807955772166524
  0.4190587756684439  0.4951945251984232  0.4388582977404648
  0.5023990470846880  0.4926971228974484  0.4810838186220002
  0.5857222261853998  0.4947023080431047  0.4392782823694862
  0.6691207389665190  0.4932275653448474  0.4816880717353110
  0.7523916199405943  0.4970303981176803  0.4393631381233972
  0.8357857136770795  0.4971632450051308  0.4812324323866926
  0.9190256934766565  0.4997904036457462  0.4389944984008807
  0.0024800119763349  0.4991223063981120  0.4809287180554709
  0.0026655733656598  0.4974318986890209  0.5663228426348993
  0.0859415823844137  0.4960339489940983  0.6083992653832915
  0.1691836212690136  0.4955756015734242  0.5661918017614044
  0.2524702108971866  0.4925014285573465  0.6082913008139560
  0.3356541581421969  0.4918739828355975  0.5661531238284406
  0.4189608691504789  0.4881680954774272  0.6082845142227814
  0.5023486196309869  0.4882047800991322  0.5663716452478428
  0.5855975879510339  0.4840213587780677  0.6087157170173021
  0.6692675966980841  0.4876271104898126  0.5666816502544224
  0.7530330867923465  0.4877593807649919  0.6088784200665158
  0.8360114157147039  0.4938993175441583  0.5665796230871096
  0.9194060205502638  0.4954732412916951  0.6085377363133655
  0.0860860211201617  0.4939229378716143  0.6942336882014467
  0.1692968834660292  0.4907498219751453  0.7348608739843052
  0.2524684204152506  0.4896199219686654  0.6940975644689750
  0.3362657881681273  0.4853770711785579  0.7346565274161839
  0.4186289877324141  0.4844189633472342  0.6938451123208429
  0.5034168253024913  0.4785363270592322  0.7342349091676766
  0.5841546616628744  0.4777453718879837  0.6935542946456943
  0.6702812633165331  0.4631077306595578  0.7365905497044990
  0.7547248332441867  0.4828628880273595  0.6938052369265538
  0.8352004487167465  0.4875843176621964  0.7346694517334825
  0.9198146537705774  0.4935456298032155  0.6941731404836802
  0.0022729781563903  0.4937131137713460  0.7349498784242817
  0.0019009842954536  0.5039022411409325  0.2474212386606490
  0.1688855439447466  0.5022435953202501  0.2472321520211013
  0.3358670791757505  0.5014856698166464  0.2473597307580170
  0.6688403431242892  0.5038088311625926  0.2480018339452140
  0.8350285855460406  0.5048029829879778  0.2478304637905188
  0.1693102917230067  0.4885086356289562  0.7996610583387923
  0.3363051724856316  0.4823802896699633  0.7994206551444876
  0.5032764283575560  0.4728583167481745  0.7987738960860542
  0.6691732786722669  0.4822528194365533  0.7980433702512283
  0.8354964268384499  0.4834146321407741  0.7993503749813763
  0.0022730948949400  0.4918283948623538  0.7997635858225405
  0.5026804887217747  0.5023149041426350  0.2477547324270397
  0.6751000761253694  0.3830405690914049  0.7514987067065252
  0.6765356739845119  0.3460273635151939  0.6828853679631443
 
  0.00000000E+00  0.00000000E+00  0.00000000E+00
  0.00000000E+00  0.00000000E+00  0.00000000E+00
  0.00000000E+00  0.00000000E+00  0.00000000E+00
  0.00000000E+00  0.00000000E+00  0.00000000E+00
  0.00000000E+00  0.00000000E+00  0.00000000E+00
  0.00000000E+00  0.00000000E+00  0.00000000E+00
  0.00000000E+00  0.00000000E+00  0.00000000E+00
  0.00000000E+00  0.00000000E+00  0.00000000E+00
  0.00000000E+00  0.00000000E+00  0.00000000E+00
  0.00000000E+00  0.00000000E+00  0.00000000E+00
  0.00000000E+00  0.00000000E+00  0.00000000E+00
  0.00000000E+00  0.00000000E+00  0.00000000E+00
  0.00000000E+00  0.00000000E+00  0.00000000E+00
  0.00000000E+00  0.00000000E+00  0.00000000E+00
  0.00000000E+00  0.00000000E+00  0.00000000E+00
  0.00000000E+00  0.00000000E+00  0.00000000E+00
  0.00000000E+00  0.00000000E+00  0.00000000E+00
  0.00000000E+00  0.00000000E+00  0.00000000E+00
  0.00000000E+00  0.00000000E+00  0.00000000E+00
  0.00000000E+00  0.00000000E+00  0.00000000E+00
  0.00000000E+00  0.00000000E+00  0.00000000E+00
  0.00000000E+00  0.00000000E+00  0.00000000E+00
  0.00000000E+00  0.00000000E+00  0.00000000E+00
  0.00000000E+00  0.00000000E+00  0.00000000E+00
  0.00000000E+00  0.00000000E+00  0.00000000E+00
  0.00000000E+00  0.00000000E+00  0.00000000E+00
  0.00000000E+00  0.00000000E+00  0.00000000E+00
  0.00000000E+00  0.00000000E+00  0.00000000E+00
  0.00000000E+00  0.00000000E+00  0.00000000E+00
  0.00000000E+00  0.00000000E+00  0.00000000E+00
  0.00000000E+00  0.00000000E+00  0.00000000E+00
  0.00000000E+00  0.00000000E+00  0.00000000E+00
  0.00000000E+00  0.00000000E+00  0.00000000E+00
  0.00000000E+00  0.00000000E+00  0.00000000E+00
  0.00000000E+00  0.00000000E+00  0.00000000E+00
  0.00000000E+00  0.00000000E+00  0.00000000E+00
  0.00000000E+00  0.00000000E+00  0.00000000E+00
  0.00000000E+00  0.00000000E+00  0.00000000E+00
  0.00000000E+00  0.00000000E+00  0.00000000E+00
  0.00000000E+00  0.00000000E+00  0.00000000E+00
  0.00000000E+00  0.00000000E+00  0.00000000E+00
  0.00000000E+00  0.00000000E+00  0.00000000E+00
  0.00000000E+00  0.00000000E+00  0.00000000E+00
  0.00000000E+00  0.00000000E+00  0.00000000E+00
  0.00000000E+00  0.00000000E+00  0.00000000E+00
  0.00000000E+00  0.00000000E+00  0.00000000E+00
  0.00000000E+00  0.00000000E+00  0.00000000E+00
  0.00000000E+00  0.00000000E+00  0.00000000E+00
  0.00000000E+00  0.00000000E+00  0.00000000E+00
  0.00000000E+00  0.00000000E+00  0.00000000E+00
  0.00000000E+00  0.00000000E+00  0.00000000E+00
  0.00000000E+00  0.00000000E+00  0.00000000E+00
  0.00000000E+00  0.00000000E+00  0.00000000E+00
  0.00000000E+00  0.00000000E+00  0.00000000E+00
  0.00000000E+00  0.00000000E+00  0.00000000E+00
  0.00000000E+00  0.00000000E+00  0.00000000E+00
  0.00000000E+00  0.00000000E+00  0.00000000E+00
  0.00000000E+00  0.00000000E+00  0.00000000E+00
  0.00000000E+00  0.00000000E+00  0.00000000E+00
  0.00000000E+00  0.00000000E+00  0.00000000E+00
  0.00000000E+00  0.00000000E+00  0.00000000E+00
  0.00000000E+00  0.00000000E+00  0.00000000E+00
