 C  H  O  S                             
   1.00000000000000     
    14.7630099300000008    0.0053200400000000   -0.0024942400000000
     0.0070480700000000   19.0443932300000007   -0.0030267900000000
    -0.0078782000000000   -0.0046446500000000   16.8297224800000009
   C    H    O    S 
    48    13     5     1
Direct
 -0.0001288739531642  0.5000565071792303  0.3120149500986170
  0.0831988611572181  0.4977559570178822  0.3526898358669248
  0.1665049485763651  0.4986737032432680  0.3119944270146842
  0.2498468188467705  0.4971113574614956  0.3526326073450801
  0.3331277904939576  0.5009838869881253  0.3120362687727141
  0.4165141303683554  0.4998578496612587  0.3526302265668371
  0.4997279588641088  0.5046439441135967  0.3120655946165324
  0.5831812023451545  0.5026855113440790  0.3526144430015357
  0.6664847396707371  0.5050391888412500  0.3119729118992093
  0.7499128163071466  0.5028564107864251  0.3526227617745576
  0.8332253449482021  0.5027607547784601  0.3119798239777499
  0.9165771154906472  0.5006422595826174  0.3527019298071256
  0.0832391822460860  0.4951740076309231  0.4386464018019064
  0.1666162121532583  0.4918869813818527  0.4806151273516790
  0.2498971641846889  0.4925914259215782  0.4384703711053135
  0.3334064404214202  0.4907870742011864  0.4804271626579905
  0.4166121122630461  0.4941403146800040  0.4383843153902650
  0.5000618418679719  0.4941550380629809  0.4804878110379606
  0.5833077582747391  0.4981010618023286  0.4384370219038142
  0.6666060434448733  0.4986649867132207  0.4805759464475926
  0.7499995857992018  0.5006414911968198  0.4385749071443975
  0.8332776256882186  0.4998189269800012  0.4807308788070146
  0.9166614625244031  0.4992129926521714  0.4386864563923521
  0.9999524071458772  0.4964356325979843  0.4807886507543369
  0.9999729532337538  0.4948427358659337  0.5663250617734761
  0.0833380514082527  0.4907304946308476  0.6083565093151242
  0.1666745213834956  0.4891716831678188  0.5661052482992274
  0.2501377062742851  0.4867731649272515  0.6080426156970727
  0.3335069798972401  0.4878946622320836  0.5658804025703936
  0.4168545495072535  0.4891240719338230  0.6079386593370749
  0.5001420100331788  0.4920658948285895  0.5658456805890033
  0.5833101976888468  0.4953636003060636  0.6079769030117584
  0.6665429432784956  0.4979374360148434  0.5660210158137891
  0.7498627340075404  0.4999103820657651  0.6082320746708860
  0.8332605322199550  0.4993536304748072  0.5662627451009512
  0.9166324151475563  0.4973249596857957  0.6084679936131369
  0.0832994027415142  0.4884974063736970  0.6943541324133663
  0.1669578471399908  0.4846281792409910  0.7348393437751087
  0.2501465724150494  0.4849777336741468  0.6939656332115590
  0.3340237296473159  0.4861785373161449  0.7346053239962715
  0.4165975535849312  0.4898300016359955  0.6936792981471388
  0.5001041457177734  0.4948558689466837  0.7350028350942547
  0.5832688650511928  0.4983881528282326  0.6936670944817009
  0.6659181316060050  0.5035770872659787  0.7347840551101634
  0.7499296809784661  0.5021730738794921  0.6941062098730575
  0.8329950158275186  0.5008463229808607  0.7351164061602414
  0.9166540501141137  0.4967585957137943  0.6944830913086956
  0.9999057672692259  0.4916272873456199  0.7351245633758184
  0.9998803887480802  0.5015152738042838  0.2472043024593737
  0.1664551863530931  0.5013374931467269  0.2472339660177054
  0.3329491478474250  0.5056280770195392  0.2474258737003526
  0.6664396876714885  0.5080201936902144  0.2472308466878224
  0.8332636412544419  0.5037252488670839  0.2471489984041050
  0.1672658157744735  0.4826566577457709  0.7996296664611229
  0.3348434278613308  0.4840526830195873  0.7993330928199891
  0.4998907431032969  0.4999752844140891  0.7992391057976831
  0.6653836297993230  0.5070127275457046  0.7992812529816433
  0.8325599630049431  0.5012196330400946  0.7999080298065268
 -0.0001816068848620  0.4898582686442362  0.7999214883465929
  0.6991643286051914  0.3631449728846206  0.7678405488964108
  0.4995038720697512  0.5101104579532179  0.2475363268647766
  0.5125213463282470  0.2522659187972997  0.8182949592041383
  0.4892658076161902  0.3789658685935385  0.8001448099964401
  0.5985009228403797  0.3181433540967908  0.7141693551567849
  0.6999618258193281  0.3802974413118885  0.8236199151172295
  0.6353390546802261  0.3291725293122458  0.8577270310999262
  0.5498844021928905  0.3179498392290143  0.7902428521797416
 
  0.00000000E+00  0.00000000E+00  0.00000000E+00
  0.00000000E+00  0.00000000E+00  0.00000000E+00
  0.00000000E+00  0.00000000E+00  0.00000000E+00
  0.00000000E+00  0.00000000E+00  0.00000000E+00
  0.00000000E+00  0.00000000E+00  0.00000000E+00
  0.00000000E+00  0.00000000E+00  0.00000000E+00
  0.00000000E+00  0.00000000E+00  0.00000000E+00
  0.00000000E+00  0.00000000E+00  0.00000000E+00
  0.00000000E+00  0.00000000E+00  0.00000000E+00
  0.00000000E+00  0.00000000E+00  0.00000000E+00
  0.00000000E+00  0.00000000E+00  0.00000000E+00
  0.00000000E+00  0.00000000E+00  0.00000000E+00
  0.00000000E+00  0.00000000E+00  0.00000000E+00
  0.00000000E+00  0.00000000E+00  0.00000000E+00
  0.00000000E+00  0.00000000E+00  0.00000000E+00
  0.00000000E+00  0.00000000E+00  0.00000000E+00
  0.00000000E+00  0.00000000E+00  0.00000000E+00
  0.00000000E+00  0.00000000E+00  0.00000000E+00
  0.00000000E+00  0.00000000E+00  0.00000000E+00
  0.00000000E+00  0.00000000E+00  0.00000000E+00
  0.00000000E+00  0.00000000E+00  0.00000000E+00
  0.00000000E+00  0.00000000E+00  0.00000000E+00
  0.00000000E+00  0.00000000E+00  0.00000000E+00
  0.00000000E+00  0.00000000E+00  0.00000000E+00
  0.00000000E+00  0.00000000E+00  0.00000000E+00
  0.00000000E+00  0.00000000E+00  0.00000000E+00
  0.00000000E+00  0.00000000E+00  0.00000000E+00
  0.00000000E+00  0.00000000E+00  0.00000000E+00
  0.00000000E+00  0.00000000E+00  0.00000000E+00
  0.00000000E+00  0.00000000E+00  0.00000000E+00
  0.00000000E+00  0.00000000E+00  0.00000000E+00
  0.00000000E+00  0.00000000E+00  0.00000000E+00
  0.00000000E+00  0.00000000E+00  0.00000000E+00
  0.00000000E+00  0.00000000E+00  0.00000000E+00
  0.00000000E+00  0.00000000E+00  0.00000000E+00
  0.00000000E+00  0.00000000E+00  0.00000000E+00
  0.00000000E+00  0.00000000E+00  0.00000000E+00
  0.00000000E+00  0.00000000E+00  0.00000000E+00
  0.00000000E+00  0.00000000E+00  0.00000000E+00
  0.00000000E+00  0.00000000E+00  0.00000000E+00
  0.00000000E+00  0.00000000E+00  0.00000000E+00
  0.00000000E+00  0.00000000E+00  0.00000000E+00
  0.00000000E+00  0.00000000E+00  0.00000000E+00
  0.00000000E+00  0.00000000E+00  0.00000000E+00
  0.00000000E+00  0.00000000E+00  0.00000000E+00
  0.00000000E+00  0.00000000E+00  0.00000000E+00
  0.00000000E+00  0.00000000E+00  0.00000000E+00
  0.00000000E+00  0.00000000E+00  0.00000000E+00
  0.00000000E+00  0.00000000E+00  0.00000000E+00
  0.00000000E+00  0.00000000E+00  0.00000000E+00
  0.00000000E+00  0.00000000E+00  0.00000000E+00
  0.00000000E+00  0.00000000E+00  0.00000000E+00
  0.00000000E+00  0.00000000E+00  0.00000000E+00
  0.00000000E+00  0.00000000E+00  0.00000000E+00
  0.00000000E+00  0.00000000E+00  0.00000000E+00
  0.00000000E+00  0.00000000E+00  0.00000000E+00
  0.00000000E+00  0.00000000E+00  0.00000000E+00
  0.00000000E+00  0.00000000E+00  0.00000000E+00
  0.00000000E+00  0.00000000E+00  0.00000000E+00
  0.00000000E+00  0.00000000E+00  0.00000000E+00
  0.00000000E+00  0.00000000E+00  0.00000000E+00
  0.00000000E+00  0.00000000E+00  0.00000000E+00
  0.00000000E+00  0.00000000E+00  0.00000000E+00
  0.00000000E+00  0.00000000E+00  0.00000000E+00
  0.00000000E+00  0.00000000E+00  0.00000000E+00
  0.00000000E+00  0.00000000E+00  0.00000000E+00
  0.00000000E+00  0.00000000E+00  0.00000000E+00
