 C  H  O  H  O  H                       
   1.00000000000000     
    14.7630099300000008    0.0053200400000000   -0.0024942400000000
     0.0070480700000000   19.0443932300000007   -0.0030267900000000
    -0.0078782000000000   -0.0046446500000000   16.8297224800000009
   C    H    O    H    O    H 
    48     8     1     3     2     2
Direct
  0.0014932668296152  0.4978906846767254  0.3153805171443107
  0.0856019429575012  0.4964950377357492  0.3550484080500630
  0.1691436828414712  0.4969452860872028  0.3143755355369472
  0.2526619302304430  0.4959480240890977  0.3551487297596167
  0.3367022212472307  0.4973638723494124  0.3154809358176636
  0.4196288608389023  0.4965145113108138  0.3571258760854917
  0.5035587215725893  0.4979847883974420  0.3177521923426798
  0.5862205243478228  0.4969217308005557  0.3594737616217749
  0.6690705184121424  0.4987279559215173  0.3185878399922470
  0.7520752845764807  0.4986851498279782  0.3593224290225899
  0.8346252950410880  0.4992632287855586  0.3175410392667987
  0.9186058875575615  0.4982484220426344  0.3569918993982210
  0.0858427676672357  0.4952703500135826  0.4409376041919247
  0.1691618987186955  0.4933116093059249  0.4829118252708732
  0.2524851481057998  0.4935237670609474  0.4410475117058700
  0.3355088289840779  0.4918955760607082  0.4837546087776970
  0.4193446783777800  0.4936393412156982  0.4429707919981604
  0.5023958185157443  0.4921179009735453  0.4861685072929823
  0.5862751365657702  0.4940748862904908  0.4455307988608473
  0.6694571287973655  0.4947059172107853  0.4888627017256602
  0.7522642294231412  0.4978234145130233  0.4454575210274233
  0.8360116846449078  0.4992397666519896  0.4862879813250146
  0.9189514971955333  0.4981952698028034  0.4429076541883121
  0.0028805957326167  0.4970854362092564  0.4835567079222954
  0.0035844808124507  0.4993124305639415  0.5686725413052682
  0.0865852198154870  0.4956734438277525  0.6106396169829580
  0.1691464860622741  0.4919666492323418  0.5682366346038362
  0.2517506941958743  0.4885431455823870  0.6107084630685571
  0.3348936895065827  0.4882489675209799  0.5688713143461348
  0.4173285045821629  0.4840960415830599  0.6116867080505370
  0.5017503157133512  0.4862031336972558  0.5712723731292881
  0.5848539472986992  0.4816418319606554  0.6147623422524424
  0.6697897765348638  0.4926015214365387  0.5750475332211441
  0.7539618494338993  0.5041206078695785  0.6161535097612459
  0.8364932197818641  0.5039530565768253  0.5716231585955480
  0.9214840747397296  0.5063381020435742  0.6113278936910096
  0.0875126670540933  0.4965813170002010  0.6963798979307705
  0.1689959205380377  0.4896243917643839  0.7375196648542706
  0.2508853375973904  0.4860278766210724  0.6964204950733585
  0.3328598950067840  0.4804299452969057  0.7377595228640677
  0.4141294467807335  0.4781270953295577  0.6967711037075118
  0.4957132450655972  0.4665452247934199  0.7379746186403332
  0.5752962429827977  0.4643939830336354  0.6974121654639042
  0.6931336326060967  0.5102613052823883  0.7608643925488665
  0.7624275151204200  0.5205740632975234  0.6999691817669477
  0.8446769041201602  0.5286008249776960  0.7369532809903238
  0.9257507275673760  0.5150433038933536  0.6958976246012305
  0.0062422864549803  0.5078227235981563  0.7373950827964745
  0.0002754101277844  0.4988681717356841  0.2505528950283538
  0.1691778307703473  0.4985210828035498  0.2495550099126970
  0.3378477234985827  0.4992221247613603  0.2506811984890626
  0.6689229642035457  0.5002110071546499  0.2537861469348647
  0.8330818851660727  0.4999614133704667  0.2527212114301219
  0.1689651181488231  0.4887047972281221  0.8023111732944722
  0.3327171976942188  0.4772407158405642  0.8024389025239155
  0.4960093497496292  0.4572960726438089  0.8017371286776022
  0.6777107295969713  0.5428040976272731  0.8211720326261555
  0.8466074620247621  0.5385273142678603  0.8006548567428010
  0.0064765498760679  0.5111220529160253  0.8020804873490112
  0.5050127679470973  0.5002068349118078  0.2529768530384724
  0.6498046182824117  0.4449289682017448  0.7439256626021158
  0.6499802036289311  0.3038939867528274  0.6596513955240085
  0.6632639489457035  0.3433316000627498  0.6947432473695274
  0.6440697746626972  0.3257197780985057  0.6077014625450897
 
  0.00000000E+00  0.00000000E+00  0.00000000E+00
  0.00000000E+00  0.00000000E+00  0.00000000E+00
  0.00000000E+00  0.00000000E+00  0.00000000E+00
  0.00000000E+00  0.00000000E+00  0.00000000E+00
  0.00000000E+00  0.00000000E+00  0.00000000E+00
  0.00000000E+00  0.00000000E+00  0.00000000E+00
  0.00000000E+00  0.00000000E+00  0.00000000E+00
  0.00000000E+00  0.00000000E+00  0.00000000E+00
  0.00000000E+00  0.00000000E+00  0.00000000E+00
  0.00000000E+00  0.00000000E+00  0.00000000E+00
  0.00000000E+00  0.00000000E+00  0.00000000E+00
  0.00000000E+00  0.00000000E+00  0.00000000E+00
  0.00000000E+00  0.00000000E+00  0.00000000E+00
  0.00000000E+00  0.00000000E+00  0.00000000E+00
  0.00000000E+00  0.00000000E+00  0.00000000E+00
  0.00000000E+00  0.00000000E+00  0.00000000E+00
  0.00000000E+00  0.00000000E+00  0.00000000E+00
  0.00000000E+00  0.00000000E+00  0.00000000E+00
  0.00000000E+00  0.00000000E+00  0.00000000E+00
  0.00000000E+00  0.00000000E+00  0.00000000E+00
  0.00000000E+00  0.00000000E+00  0.00000000E+00
  0.00000000E+00  0.00000000E+00  0.00000000E+00
  0.00000000E+00  0.00000000E+00  0.00000000E+00
  0.00000000E+00  0.00000000E+00  0.00000000E+00
  0.00000000E+00  0.00000000E+00  0.00000000E+00
  0.00000000E+00  0.00000000E+00  0.00000000E+00
  0.00000000E+00  0.00000000E+00  0.00000000E+00
  0.00000000E+00  0.00000000E+00  0.00000000E+00
  0.00000000E+00  0.00000000E+00  0.00000000E+00
  0.00000000E+00  0.00000000E+00  0.00000000E+00
  0.00000000E+00  0.00000000E+00  0.00000000E+00
  0.00000000E+00  0.00000000E+00  0.00000000E+00
  0.00000000E+00  0.00000000E+00  0.00000000E+00
  0.00000000E+00  0.00000000E+00  0.00000000E+00
  0.00000000E+00  0.00000000E+00  0.00000000E+00
  0.00000000E+00  0.00000000E+00  0.00000000E+00
  0.00000000E+00  0.00000000E+00  0.00000000E+00
  0.00000000E+00  0.00000000E+00  0.00000000E+00
  0.00000000E+00  0.00000000E+00  0.00000000E+00
  0.00000000E+00  0.00000000E+00  0.00000000E+00
  0.00000000E+00  0.00000000E+00  0.00000000E+00
  0.00000000E+00  0.00000000E+00  0.00000000E+00
  0.00000000E+00  0.00000000E+00  0.00000000E+00
  0.00000000E+00  0.00000000E+00  0.00000000E+00
  0.00000000E+00  0.00000000E+00  0.00000000E+00
  0.00000000E+00  0.00000000E+00  0.00000000E+00
  0.00000000E+00  0.00000000E+00  0.00000000E+00
  0.00000000E+00  0.00000000E+00  0.00000000E+00
  0.00000000E+00  0.00000000E+00  0.00000000E+00
  0.00000000E+00  0.00000000E+00  0.00000000E+00
  0.00000000E+00  0.00000000E+00  0.00000000E+00
  0.00000000E+00  0.00000000E+00  0.00000000E+00
  0.00000000E+00  0.00000000E+00  0.00000000E+00
  0.00000000E+00  0.00000000E+00  0.00000000E+00
  0.00000000E+00  0.00000000E+00  0.00000000E+00
  0.00000000E+00  0.00000000E+00  0.00000000E+00
  0.00000000E+00  0.00000000E+00  0.00000000E+00
  0.00000000E+00  0.00000000E+00  0.00000000E+00
  0.00000000E+00  0.00000000E+00  0.00000000E+00
  0.00000000E+00  0.00000000E+00  0.00000000E+00
  0.00000000E+00  0.00000000E+00  0.00000000E+00
  0.00000000E+00  0.00000000E+00  0.00000000E+00
  0.00000000E+00  0.00000000E+00  0.00000000E+00
  0.00000000E+00  0.00000000E+00  0.00000000E+00
