 C  H  O  H  O  H                       
   1.00000000000000     
    14.7630099300000008    0.0053200400000000   -0.0024942400000000
     0.0070480700000000   19.0443932300000007   -0.0030267900000000
    -0.0078782000000000   -0.0046446500000000   16.8297224800000009
   C    H    O    H    O    H 
    48     8     1     4     2     2
Direct
  0.9967402184836428  0.4998724672200168  0.3102755461115109
  0.0803080225922198  0.4987448595351435  0.3507109216972408
  0.1636598423418583  0.4979777515380988  0.3099725451909581
  0.2470919422502895  0.4980744392200110  0.3506500977092945
  0.3306144665039236  0.4985215601640632  0.3101823566550264
  0.4138477689204177  0.4997237314407293  0.3511291104423664
  0.4973731518138154  0.5007131245100768  0.3107692570018884
  0.5804856172600558  0.5015691718025206  0.3518696627522868
  0.6637229038389639  0.5022568264007830  0.3111153524356038
  0.7469866813134108  0.5022282021766924  0.3519394927688169
  0.8300477682872986  0.5020558417003447  0.3108648973465287
  0.9135896066777616  0.5010615193265628  0.3512715628510618
  0.0804194441984084  0.4986843785230623  0.4366859415539256
  0.1637862173370385  0.4980873216166388  0.4787169686805356
  0.2471022409066354  0.4982401661680917  0.4366320944466757
  0.3303894275122367  0.4988596862039655  0.4788876358118849
  0.4138196646122996  0.4998007583501538  0.4371091639338894
  0.4971014286530780  0.5002136720436673  0.4795993615727286
  0.5804993759200696  0.5009969362972559  0.4378618363742005
  0.6638052162345611  0.5004527509679475  0.4804802477364704
  0.7470618077392955  0.5014051380535371  0.4379272793346864
  0.8304741332369664  0.5007072620079691  0.4797425113241423
  0.9136988892471557  0.5006600903018026  0.4372439635024971
  0.9971889278314517  0.4994110803106929  0.4789960637499044
  0.9974243859129114  0.4986529724043994  0.5643934248332343
  0.0806984890456772  0.4975923676809849  0.6063047342811508
  0.1638555379770133  0.4977312711431397  0.5641505219443094
  0.2470310002047721  0.4977300414138680  0.6062490601752725
  0.3302521101213913  0.4986387911555069  0.5642891445458700
  0.4133845564612479  0.4986164978950682  0.6065948542316827
  0.4969237989869532  0.4987473834679703  0.5649791541881661
  0.5800023568547711  0.4958425110488424  0.6078985634517894
  0.6638352142011893  0.4972542445945221  0.5657225011109785
  0.7476738304074720  0.4954863012196809  0.6080386403351469
  0.8307024639194043  0.4986187031781792  0.5651340476163779
  0.9143320243290002  0.4981771979869049  0.6067357449757418
  0.0808098622597730  0.4962670946793956  0.6920818690253806
  0.1639800080791108  0.4954168467210508  0.7328150165972992
  0.2470775769446012  0.4967975504540175  0.6920339213955258
  0.3307943364120040  0.4972099301802886  0.7328909743115035
  0.4132445910312755  0.4977804332450780  0.6922594289674383
  0.4975742108017238  0.4940097870402061  0.7331947067717295
  0.5783536601012855  0.4904682196925015  0.6928360824410038
  0.6636498385640859  0.4674990201543043  0.7366385226129720
  0.7494026141593553  0.4894114140175235  0.6929666422554709
  0.8303083120007575  0.4919841983828767  0.7333123203013651
  0.9145905160093660  0.4963680770661563  0.6923823926781321
  0.9971348825997891  0.4958170723295705  0.7329694080428479
  0.9963556412318888  0.4997823538829548  0.2454368300758173
  0.1635783560186655  0.4978126041993830  0.2451295550515787
  0.3308699797874889  0.4981338964249286  0.2453393165523345
  0.6637325745783527  0.5023629565362210  0.2462785858010198
  0.8295982255824507  0.5022114144683517  0.2460287044544389
  0.1640823705666056  0.4938020208540455  0.7976463047665548
  0.3309173558019472  0.4961200302000698  0.7977269479591917
  0.4982039969934006  0.4915060971791992  0.7978372496603848
  0.6643225143466821  0.4962354095162324  0.8173085700950656
  0.8296605978326619  0.4884626960563717  0.7978920886857414
  0.9971722653912417  0.4941444292366431  0.7977842647864009
  0.4978021921021398  0.5005607587773173  0.2459304451038682
  0.6580365966679514  0.4532524550265152  0.8483810504347593
  0.6617447824638366  0.3965512493450865  0.7366835490461062
  0.6774931701742103  0.2459631072297387  0.7265476907644798
  0.6723978847645395  0.2973733305816100  0.7233840729319674
  0.6718725610311013  0.2299141791559446  0.6720143009549304
 
  0.00000000E+00  0.00000000E+00  0.00000000E+00
  0.00000000E+00  0.00000000E+00  0.00000000E+00
  0.00000000E+00  0.00000000E+00  0.00000000E+00
  0.00000000E+00  0.00000000E+00  0.00000000E+00
  0.00000000E+00  0.00000000E+00  0.00000000E+00
  0.00000000E+00  0.00000000E+00  0.00000000E+00
  0.00000000E+00  0.00000000E+00  0.00000000E+00
  0.00000000E+00  0.00000000E+00  0.00000000E+00
  0.00000000E+00  0.00000000E+00  0.00000000E+00
  0.00000000E+00  0.00000000E+00  0.00000000E+00
  0.00000000E+00  0.00000000E+00  0.00000000E+00
  0.00000000E+00  0.00000000E+00  0.00000000E+00
  0.00000000E+00  0.00000000E+00  0.00000000E+00
  0.00000000E+00  0.00000000E+00  0.00000000E+00
  0.00000000E+00  0.00000000E+00  0.00000000E+00
  0.00000000E+00  0.00000000E+00  0.00000000E+00
  0.00000000E+00  0.00000000E+00  0.00000000E+00
  0.00000000E+00  0.00000000E+00  0.00000000E+00
  0.00000000E+00  0.00000000E+00  0.00000000E+00
  0.00000000E+00  0.00000000E+00  0.00000000E+00
  0.00000000E+00  0.00000000E+00  0.00000000E+00
  0.00000000E+00  0.00000000E+00  0.00000000E+00
  0.00000000E+00  0.00000000E+00  0.00000000E+00
  0.00000000E+00  0.00000000E+00  0.00000000E+00
  0.00000000E+00  0.00000000E+00  0.00000000E+00
  0.00000000E+00  0.00000000E+00  0.00000000E+00
  0.00000000E+00  0.00000000E+00  0.00000000E+00
  0.00000000E+00  0.00000000E+00  0.00000000E+00
  0.00000000E+00  0.00000000E+00  0.00000000E+00
  0.00000000E+00  0.00000000E+00  0.00000000E+00
  0.00000000E+00  0.00000000E+00  0.00000000E+00
  0.00000000E+00  0.00000000E+00  0.00000000E+00
  0.00000000E+00  0.00000000E+00  0.00000000E+00
  0.00000000E+00  0.00000000E+00  0.00000000E+00
  0.00000000E+00  0.00000000E+00  0.00000000E+00
  0.00000000E+00  0.00000000E+00  0.00000000E+00
  0.00000000E+00  0.00000000E+00  0.00000000E+00
  0.00000000E+00  0.00000000E+00  0.00000000E+00
  0.00000000E+00  0.00000000E+00  0.00000000E+00
  0.00000000E+00  0.00000000E+00  0.00000000E+00
  0.00000000E+00  0.00000000E+00  0.00000000E+00
  0.00000000E+00  0.00000000E+00  0.00000000E+00
  0.00000000E+00  0.00000000E+00  0.00000000E+00
  0.00000000E+00  0.00000000E+00  0.00000000E+00
  0.00000000E+00  0.00000000E+00  0.00000000E+00
  0.00000000E+00  0.00000000E+00  0.00000000E+00
  0.00000000E+00  0.00000000E+00  0.00000000E+00
  0.00000000E+00  0.00000000E+00  0.00000000E+00
  0.00000000E+00  0.00000000E+00  0.00000000E+00
  0.00000000E+00  0.00000000E+00  0.00000000E+00
  0.00000000E+00  0.00000000E+00  0.00000000E+00
  0.00000000E+00  0.00000000E+00  0.00000000E+00
  0.00000000E+00  0.00000000E+00  0.00000000E+00
  0.00000000E+00  0.00000000E+00  0.00000000E+00
  0.00000000E+00  0.00000000E+00  0.00000000E+00
  0.00000000E+00  0.00000000E+00  0.00000000E+00
  0.00000000E+00  0.00000000E+00  0.00000000E+00
  0.00000000E+00  0.00000000E+00  0.00000000E+00
  0.00000000E+00  0.00000000E+00  0.00000000E+00
  0.00000000E+00  0.00000000E+00  0.00000000E+00
  0.00000000E+00  0.00000000E+00  0.00000000E+00
  0.00000000E+00  0.00000000E+00  0.00000000E+00
  0.00000000E+00  0.00000000E+00  0.00000000E+00
  0.00000000E+00  0.00000000E+00  0.00000000E+00
  0.00000000E+00  0.00000000E+00  0.00000000E+00
