 C  H  O  H  O                          
   1.00000000000000     
    14.7630099300000008    0.0053200400000000   -0.0024942400000000
     0.0070480700000000   19.0443932300000007   -0.0030267900000000
    -0.0078782000000000   -0.0046446500000000   16.8297224800000009
   C    H    O    H    O 
    48     8     1     3     2
Direct
  0.9972580450757939  0.4992658584025469  0.3114795095469388
  0.0808007832617265  0.4980386945315992  0.3519391108297259
  0.1641505702601471  0.4979678429253688  0.3112561783239792
  0.2475609812293960  0.4976264977167135  0.3519343486046257
  0.3310527979025638  0.4982185722676121  0.3114668255930724
  0.4142948114401170  0.4988132910297309  0.3523591252117251
  0.4977681927892756  0.4997705586404063  0.3119180583917604
  0.5809140438725051  0.5004165012299844  0.3528875408648030
  0.6641526427021716  0.5010944080628650  0.3121346523057708
  0.7474496662013458  0.5008491974429091  0.3528939708412167
  0.8305450299740684  0.5008349156417247  0.3119315623634985
  0.9140737083071044  0.4996540624594468  0.3523709619237093
  0.0808938455486650  0.4970195199470118  0.4379308871138354
  0.1642738493899128  0.4962764071947899  0.4800158401545905
  0.2475903392261286  0.4969871413844071  0.4379305405404879
  0.3309175003838604  0.4974006638810773  0.4801768550846414
  0.4143106268847443  0.4985673752691323  0.4383551962843961
  0.4976563918571556  0.4993365994442251  0.4807530330099428
  0.5809387420343711  0.5001243634007628  0.4388951865245883
  0.6642708062454150  0.5001486130919298  0.4813799515430401
  0.7475466749660170  0.5001765311536572  0.4388997961846610
  0.8308842610129427  0.4991111307506697  0.4807551859122383
  0.9141740279155527  0.4986435142132832  0.4383601751968983
  0.9976253253958953  0.4971560193884066  0.4801750286101754
  0.9978185290581113  0.4958594387934904  0.5655965026602038
  0.0811232222984234  0.4944979023607539  0.6076413886119997
  0.1643363454858901  0.4951445572537039  0.5654659062899635
  0.2476034972620982  0.4952150988224933  0.6076531410694034
  0.3308403475247625  0.4967729575013993  0.5656086217463796
  0.4140386923962648  0.4976563028267040  0.6079459686829682
  0.4976108711633219  0.4989165398777865  0.5662449913812526
  0.5807652708416524  0.4989016364829841  0.6090050198400684
  0.6643318939445734  0.4994123278881367  0.5667276232599718
  0.7479550712238218  0.4982428857251600  0.6089971596811375
  0.8310441273159250  0.4980359801573309  0.5662378648608789
  0.9146716150034703  0.4962219205891661  0.6079311511430373
  0.0813066157013827  0.4928908774871619  0.6935182770029639
  0.1644654196304962  0.4922611381512550  0.7342818225061465
  0.2475490419486439  0.4940088996022338  0.6935381940030679
  0.3311423775197179  0.4950185935084397  0.7343891629514855
  0.4136109910589044  0.4969492341936063  0.6936561345914739
  0.4978005711199157  0.4970396228805945  0.7346468738191684
  0.5790735895172959  0.4973072371780796  0.6943505038062168
  0.6644286149728813  0.4940099864727592  0.7409914708012314
  0.7497587131997834  0.4961538265057553  0.6943303583186221
  0.8310779685665768  0.4946305566687073  0.7346080095003600
  0.9152153712610231  0.4946302315605601  0.6936240734859205
  0.9977505362975532  0.4927047747375299  0.7343519348571846
  0.9969497078361421  0.5000800156740373  0.2466464783714289
  0.1641016981940757  0.4985668851084207  0.2464155667535531
  0.3312709125214722  0.4984739680624407  0.2466278438766769
  0.6641080025576883  0.5014875851762132  0.2472990829191084
  0.8301649751009382  0.5015389726422130  0.2470972563282707
  0.1645169351161350  0.4909505536995111  0.7991011538852184
  0.3313428272393527  0.4942133189316141  0.7992120634865798
  0.4993731257858811  0.4963433817837030  0.7993970295646438
  0.6644210201009789  0.4868512079976607  0.8143705837210847
  0.8295799896987937  0.4932539089783763  0.7993434222495687
  0.9976374808229916  0.4913358100530373  0.7991600238647159
  0.4980625003473498  0.4999238338305930  0.2470781457605110
  0.6647328855254797  0.6315701501517784  0.7374142892472874
  0.6646768607536945  0.6719945865945044  0.6776813820120984
 
  0.00000000E+00  0.00000000E+00  0.00000000E+00
  0.00000000E+00  0.00000000E+00  0.00000000E+00
  0.00000000E+00  0.00000000E+00  0.00000000E+00
  0.00000000E+00  0.00000000E+00  0.00000000E+00
  0.00000000E+00  0.00000000E+00  0.00000000E+00
  0.00000000E+00  0.00000000E+00  0.00000000E+00
  0.00000000E+00  0.00000000E+00  0.00000000E+00
  0.00000000E+00  0.00000000E+00  0.00000000E+00
  0.00000000E+00  0.00000000E+00  0.00000000E+00
  0.00000000E+00  0.00000000E+00  0.00000000E+00
  0.00000000E+00  0.00000000E+00  0.00000000E+00
  0.00000000E+00  0.00000000E+00  0.00000000E+00
  0.00000000E+00  0.00000000E+00  0.00000000E+00
  0.00000000E+00  0.00000000E+00  0.00000000E+00
  0.00000000E+00  0.00000000E+00  0.00000000E+00
  0.00000000E+00  0.00000000E+00  0.00000000E+00
  0.00000000E+00  0.00000000E+00  0.00000000E+00
  0.00000000E+00  0.00000000E+00  0.00000000E+00
  0.00000000E+00  0.00000000E+00  0.00000000E+00
  0.00000000E+00  0.00000000E+00  0.00000000E+00
  0.00000000E+00  0.00000000E+00  0.00000000E+00
  0.00000000E+00  0.00000000E+00  0.00000000E+00
  0.00000000E+00  0.00000000E+00  0.00000000E+00
  0.00000000E+00  0.00000000E+00  0.00000000E+00
  0.00000000E+00  0.00000000E+00  0.00000000E+00
  0.00000000E+00  0.00000000E+00  0.00000000E+00
  0.00000000E+00  0.00000000E+00  0.00000000E+00
  0.00000000E+00  0.00000000E+00  0.00000000E+00
  0.00000000E+00  0.00000000E+00  0.00000000E+00
  0.00000000E+00  0.00000000E+00  0.00000000E+00
  0.00000000E+00  0.00000000E+00  0.00000000E+00
  0.00000000E+00  0.00000000E+00  0.00000000E+00
  0.00000000E+00  0.00000000E+00  0.00000000E+00
  0.00000000E+00  0.00000000E+00  0.00000000E+00
  0.00000000E+00  0.00000000E+00  0.00000000E+00
  0.00000000E+00  0.00000000E+00  0.00000000E+00
  0.00000000E+00  0.00000000E+00  0.00000000E+00
  0.00000000E+00  0.00000000E+00  0.00000000E+00
  0.00000000E+00  0.00000000E+00  0.00000000E+00
  0.00000000E+00  0.00000000E+00  0.00000000E+00
  0.00000000E+00  0.00000000E+00  0.00000000E+00
  0.00000000E+00  0.00000000E+00  0.00000000E+00
  0.00000000E+00  0.00000000E+00  0.00000000E+00
  0.00000000E+00  0.00000000E+00  0.00000000E+00
  0.00000000E+00  0.00000000E+00  0.00000000E+00
  0.00000000E+00  0.00000000E+00  0.00000000E+00
  0.00000000E+00  0.00000000E+00  0.00000000E+00
  0.00000000E+00  0.00000000E+00  0.00000000E+00
  0.00000000E+00  0.00000000E+00  0.00000000E+00
  0.00000000E+00  0.00000000E+00  0.00000000E+00
  0.00000000E+00  0.00000000E+00  0.00000000E+00
  0.00000000E+00  0.00000000E+00  0.00000000E+00
  0.00000000E+00  0.00000000E+00  0.00000000E+00
  0.00000000E+00  0.00000000E+00  0.00000000E+00
  0.00000000E+00  0.00000000E+00  0.00000000E+00
  0.00000000E+00  0.00000000E+00  0.00000000E+00
  0.00000000E+00  0.00000000E+00  0.00000000E+00
  0.00000000E+00  0.00000000E+00  0.00000000E+00
  0.00000000E+00  0.00000000E+00  0.00000000E+00
  0.00000000E+00  0.00000000E+00  0.00000000E+00
  0.00000000E+00  0.00000000E+00  0.00000000E+00
  0.00000000E+00  0.00000000E+00  0.00000000E+00
