 C  H  O  H 
 1.0000000000000000
    14.7630099300000008    0.0053200400000000   -0.0024942400000000
     0.0070480700000000   19.0443932300000007   -0.0030267900000000
    -0.0078782000000000   -0.0046446500000000   16.8297224800000009
 C   H   O   H  
  48   8   1   3
Cartesian
 14.7241205988468273  9.5151313741389281  5.2337572466660989
  1.1938718313674308  9.4828817103942331  5.9176421255775633
  2.4248779893275794  9.4792694182185038  5.2315876260455996
  3.6561635529525098  9.4696812879387640  5.9167278683339548
  4.8887408007274642  9.4809897355725621  5.2341569942026869
  6.1175560060869172  9.4915980115274685  5.9241124963282061
  7.3493774927193751  9.5136539366918331  5.2414832753658489
  8.5766485121013289  9.5268492832180787  5.9328718645763932
  9.8055182979814965  9.5459152813287105  5.2453328783251445
 11.0349170388112210  9.5423093263565484  5.9322762806669935
 12.2625505421849414  9.5463985656310957  5.2418719532889195
 13.4950777985224981  9.5224030068445025  5.9229715374993104
  1.1943398050425915  9.4614501594143672  7.3642592240016658
  2.4255119604349376  9.4441109203574509  8.0722307316334518
  3.6562242963219065  9.4560986356931380  7.3633693397561739
  4.8852706261537397  9.4626737408918924  8.0748422296142408
  6.1176994717357083  9.4845939019313068  7.3703524691169839
  7.3461153159710664  9.5002633952960078  8.0848052396105672
  8.5761636775080223  9.5171799789669258  7.3789699756433373
  9.8052728542694272  9.5191706411237540  8.0939916544205577
 11.0350747707892349  9.5243399725843805  7.3790699465735212
 12.2663615069475416  9.5041009210709646  8.0827912634670174
 13.4955098777279261  9.4989450063340453  7.3695683806490813
 14.7283114546908482  9.4689175687226488  8.0730434648220548
 14.7311593738090085  9.4399557696846106  9.5099497509494295
  1.1975173685314753  9.4063939711966977 10.2189406932973856
  2.4263823256456676  9.4205605278813405  9.5089384859830517
  3.6555099746633548  9.4230547455628955 10.2173861264978694
  4.8830994114617168  9.4556135242731507  9.5102993189011773
  6.1105638759977099  9.4845720780403138 10.2238894018077051
  7.3434752685433464  9.5014731272292945  9.5215828210164339
  8.5698748613306073  9.5121289382421228 10.2430829301086845
  9.8045693384173784  9.5107959917255478  9.5294728037553273
 11.0394751982843058  9.4936099333842030 10.2395682116115889
 12.2682500205970300  9.4817884464309241  9.5207197902979086
 13.5022030162480640  9.4454693592420416 10.2228301830338602
  1.2002423299088341  9.3697810504188794 11.6630594004228723
  2.4311464266931955  9.3543474040079833 12.3486075097198302
  3.6561451909051739  9.3958320599856755 11.6614333990070040
  4.8913724544791144  9.4228744062649614 12.3507388138675811
  6.1033736183908980  9.4877713570214759 11.6609605815376813
  7.3425030221639265  9.5200049293333695 12.3560268758844103
  8.5437606724164308  9.5282230905805694 11.6781135203085586
  9.8014160395486520  9.5217876715579770 12.4597221645675944
 11.0654248945994631  9.4821279631318873 11.6763782036459709
 12.2652497917499783  9.4345854951744297 12.3543769181401828
 13.5094450720781616  9.4127951354210602 11.6643194954694049
 14.7294835971037568  9.3702277876867903 12.3491440804842476
 14.7201995033070343  9.5307309323775637  4.1428406728383704
  2.4246148949714246  9.4895464952218127  4.1405428105912687
  4.8927930264166308  9.4852930943427634  4.1431552104737905
  9.8052438163635518  9.5555813947162331  4.1543112752926357
 12.2575267649450037  9.5614136240723688  4.1509544117203419
  2.4347020447745815  9.3178707506386722 13.4390651502567859
  4.9028808072844816  9.3667101469073231 13.4381500895522468
  7.3500328943434052  9.5157803921166888 13.4426490229812590
  9.8098848731110451  9.5544366934401026 13.7023385904236612
 12.2422149952111390  9.4143903321676916 13.4441732725183751
 14.7281884961754166  9.3392502585514787 13.4398233585777440
  7.3542531327245673  9.5176211410450708  4.1504948177232110
