 C  H  O  S                             
   1.00000000000000     
    14.7630099300000008    0.0053200400000000   -0.0024942400000000
     0.0070480700000000   19.0443932300000007   -0.0030267900000000
    -0.0078782000000000   -0.0046446500000000   16.8297224800000009
   C    H    O    S 
    48    13     5     1
Direct
  0.9998449213225918  0.5022415323815322  0.3134825660553328
  0.0832801882178244  0.5004646101224771  0.3541606894867719
  0.1667664500856744  0.4999171152295278  0.3134619498199801
  0.2499812877328016  0.4975365087679848  0.3544817560413182
  0.3334365267182984  0.4980235223007188  0.3139148934747006
  0.4168170191404491  0.4970187910718792  0.3549467249715901
  0.5001291426163832  0.4991242389450740  0.3142689455043550
  0.5833144653340010  0.4989902240339334  0.3553778785061121
  0.6666476259582433  0.5011182774356769  0.3145625874602745
  0.7500049727717234  0.5010815738108605  0.3552733209674766
  0.8330316319537314  0.5026673023265007  0.3140645935786697
  0.9166306961377442  0.5020449179771734  0.3545308231300059
  0.0833348760194218  0.4988465264535373  0.4400208023764663
  0.1666966778715367  0.4956867724098356  0.4821951377726625
  0.2498502602096959  0.4947537954698317  0.4402238029210725
  0.3330491995124338  0.4917552403609481  0.4827382494782707
  0.4167973397354982  0.4941206224046385  0.4406821693036973
  0.5000344735118092  0.4942430393089517  0.4830103301245082
  0.5833608322177739  0.4966485062610584  0.4411556048887517
  0.6670508469670587  0.4965604689755281  0.4836364329656851
  0.7502153375668323  0.4990290273697544  0.4410706114238024
  0.8334910183563559  0.4993462827258935  0.4829057109995813
  0.9167694408052345  0.5006314745324899  0.4404080213899580
  1.0001666161069274  0.4994684088931706  0.4822990085927030
  1.0003229124717348  0.4980909187283342  0.5675959238748521
  0.0834239808553884  0.4950850544700880  0.6096924775129960
  0.1666611314654548  0.4927903226321370  0.5673789045658316
  0.2494087368340912  0.4861828687374634  0.6096639816243988
  0.3327524459866957  0.4868874318530763  0.5674167157757626
  0.4169237212045864  0.4865347367485598  0.6101051228783271
  0.4999338134894614  0.4916559510177227  0.5681563521078479
  0.5830083400165601  0.4919182430909667  0.6110069712293664
  0.6673517351700288  0.4939648384288508  0.5685543215701556
  0.7507316076421116  0.4942959119499984  0.6109632277311724
  0.8336889108730399  0.4975671766995176  0.5681652556170834
  0.9173206843377030  0.4979015920138723  0.6100010921264427
  0.0835071547061189  0.4930176461928235  0.6950404453288228
  0.1679669257540338  0.4849166377541210  0.7354885390775803
  0.2479959082514836  0.4795284099600801  0.6945629078034802
  0.3335988115002094  0.4585744472011591  0.7365464673492872
  0.4176023160439348  0.4817516883597118  0.6939386928119968
  0.4989735581635332  0.4865126081530633  0.7352432084944232
  0.5813459271040119  0.4898642747240926  0.6948613990477457
  0.6662036304278943  0.4800566004659080  0.7427745914845165
  0.7523052217368015  0.4914649792016533  0.6961189001047948
  0.8332893082828166  0.4942927092205484  0.7361973789446544
  0.9178126726111461  0.4967416620652630  0.6953361739782636
  1.0008570346524681  0.4952731521033996  0.7359967065649474
  0.9996078894106301  0.5031860056620787  0.2486639900659161
  0.1669858723868107  0.5013320762484150  0.2486494538732308
  0.3337087890675491  0.4998002583890102  0.2491110250800091
  0.6664814037080179  0.5027064914797346  0.2497517627360204
  0.8325263769806129  0.5039073517166378  0.2492493367673648
  0.1678703177978694  0.4799061255298869  0.8000653090559837
  0.3340018724458667  0.4753555767518779  0.7989745965669918
  0.4983912459691738  0.4810276595959252  0.7996808253951215
  0.6650920948214891  0.5169266762482470  0.7936484384665772
  0.8336495335471666  0.4919888182556043  0.8009791329557834
  1.0009874113185731  0.4935256219232724  0.8007954759864212
  0.6084393882539767  0.3870123439855248  0.7667605580917841
  0.5003009315204457  0.5009860542646506  0.2494871274123532
  0.3674748355644443  0.2716576664392768  0.7984501860146690
  0.3319666682118240  0.3817347408649130  0.7340778555720396
  0.4944330201430212  0.3402731306748136  0.7446930590070905
  0.6687630337757960  0.4089403579186782  0.7731531569403277
  0.4157018023918614  0.3827389798884806  0.8636173350816903
  0.4100758518029482  0.3398659826002421  0.7914834147497649
 
  0.00000000E+00  0.00000000E+00  0.00000000E+00
  0.00000000E+00  0.00000000E+00  0.00000000E+00
  0.00000000E+00  0.00000000E+00  0.00000000E+00
  0.00000000E+00  0.00000000E+00  0.00000000E+00
  0.00000000E+00  0.00000000E+00  0.00000000E+00
  0.00000000E+00  0.00000000E+00  0.00000000E+00
  0.00000000E+00  0.00000000E+00  0.00000000E+00
  0.00000000E+00  0.00000000E+00  0.00000000E+00
  0.00000000E+00  0.00000000E+00  0.00000000E+00
  0.00000000E+00  0.00000000E+00  0.00000000E+00
  0.00000000E+00  0.00000000E+00  0.00000000E+00
  0.00000000E+00  0.00000000E+00  0.00000000E+00
  0.00000000E+00  0.00000000E+00  0.00000000E+00
  0.00000000E+00  0.00000000E+00  0.00000000E+00
  0.00000000E+00  0.00000000E+00  0.00000000E+00
  0.00000000E+00  0.00000000E+00  0.00000000E+00
  0.00000000E+00  0.00000000E+00  0.00000000E+00
  0.00000000E+00  0.00000000E+00  0.00000000E+00
  0.00000000E+00  0.00000000E+00  0.00000000E+00
  0.00000000E+00  0.00000000E+00  0.00000000E+00
  0.00000000E+00  0.00000000E+00  0.00000000E+00
  0.00000000E+00  0.00000000E+00  0.00000000E+00
  0.00000000E+00  0.00000000E+00  0.00000000E+00
  0.00000000E+00  0.00000000E+00  0.00000000E+00
  0.00000000E+00  0.00000000E+00  0.00000000E+00
  0.00000000E+00  0.00000000E+00  0.00000000E+00
  0.00000000E+00  0.00000000E+00  0.00000000E+00
  0.00000000E+00  0.00000000E+00  0.00000000E+00
  0.00000000E+00  0.00000000E+00  0.00000000E+00
  0.00000000E+00  0.00000000E+00  0.00000000E+00
  0.00000000E+00  0.00000000E+00  0.00000000E+00
  0.00000000E+00  0.00000000E+00  0.00000000E+00
  0.00000000E+00  0.00000000E+00  0.00000000E+00
  0.00000000E+00  0.00000000E+00  0.00000000E+00
  0.00000000E+00  0.00000000E+00  0.00000000E+00
  0.00000000E+00  0.00000000E+00  0.00000000E+00
  0.00000000E+00  0.00000000E+00  0.00000000E+00
  0.00000000E+00  0.00000000E+00  0.00000000E+00
  0.00000000E+00  0.00000000E+00  0.00000000E+00
  0.00000000E+00  0.00000000E+00  0.00000000E+00
  0.00000000E+00  0.00000000E+00  0.00000000E+00
  0.00000000E+00  0.00000000E+00  0.00000000E+00
  0.00000000E+00  0.00000000E+00  0.00000000E+00
  0.00000000E+00  0.00000000E+00  0.00000000E+00
  0.00000000E+00  0.00000000E+00  0.00000000E+00
  0.00000000E+00  0.00000000E+00  0.00000000E+00
  0.00000000E+00  0.00000000E+00  0.00000000E+00
  0.00000000E+00  0.00000000E+00  0.00000000E+00
  0.00000000E+00  0.00000000E+00  0.00000000E+00
  0.00000000E+00  0.00000000E+00  0.00000000E+00
  0.00000000E+00  0.00000000E+00  0.00000000E+00
  0.00000000E+00  0.00000000E+00  0.00000000E+00
  0.00000000E+00  0.00000000E+00  0.00000000E+00
  0.00000000E+00  0.00000000E+00  0.00000000E+00
  0.00000000E+00  0.00000000E+00  0.00000000E+00
  0.00000000E+00  0.00000000E+00  0.00000000E+00
  0.00000000E+00  0.00000000E+00  0.00000000E+00
  0.00000000E+00  0.00000000E+00  0.00000000E+00
  0.00000000E+00  0.00000000E+00  0.00000000E+00
  0.00000000E+00  0.00000000E+00  0.00000000E+00
  0.00000000E+00  0.00000000E+00  0.00000000E+00
  0.00000000E+00  0.00000000E+00  0.00000000E+00
  0.00000000E+00  0.00000000E+00  0.00000000E+00
  0.00000000E+00  0.00000000E+00  0.00000000E+00
  0.00000000E+00  0.00000000E+00  0.00000000E+00
  0.00000000E+00  0.00000000E+00  0.00000000E+00
  0.00000000E+00  0.00000000E+00  0.00000000E+00
