 C  H  C  H  O  S  O  H                 
   1.00000000000000     
    14.7630099300000008    0.0053200400000000   -0.0024942400000000
     0.0070480700000000   19.0443932300000007   -0.0030267900000000
    -0.0078782000000000   -0.0046446500000000   16.8297224800000009
   C    H    C    H    O    S    O    H 
    48     8     1     4     5     1     2     1
Direct
  0.9993554273122036  0.5001353895831211  0.3152304898240904
  0.0827895795137053  0.4981120968232148  0.3557862159057965
  0.1661077822295704  0.4990326759909551  0.3150078660529959
  0.2495114673907620  0.4974855558771530  0.3556350574848187
  0.3329056941086037  0.4990213942091216  0.3149679523232614
  0.4162703136097947  0.4981894586025004  0.3557093863733624
  0.4996174921639975  0.5001076907958121  0.3150514960316397
  0.5829193115862528  0.4995866715061665  0.3559281573577401
  0.6661942232196159  0.5012991941039837  0.3152434755861530
  0.7495025160464626  0.5002789043191296  0.3560887856688975
  0.8327415556927793  0.5012821872834978  0.3153384598366442
  0.9160991687246314  0.4994986246747217  0.3560450143208136
  0.0828446362682628  0.4952276126996218  0.4417166675459889
  0.1662856785947525  0.4933158006958439  0.4837079281972060
  0.2495475148645903  0.4945997898200148  0.4415639820872012
  0.3329886564522797  0.4936987437090727  0.4836218006360106
  0.4163154488388927  0.4956326582485038  0.4416532950509935
  0.4996754462506768  0.4956146968787840  0.4839069997061418
  0.5829953828292450  0.4974475422609420  0.4418800637198575
  0.6662183614414552  0.4974291812541954  0.4841610085377978
  0.7495481188866534  0.4981820762313220  0.4420519217428141
  0.8327924199467110  0.4968854455987606  0.4841862904354180
  0.9161351241850968  0.4969806550189089  0.4419996782142797
 -0.0004290607298803  0.4948200179354347  0.4839036473478178
 -0.0003623630037368  0.4926247896563519  0.5693777663173114
  0.0830573630656791  0.4900211897043049  0.6113885706129425
  0.1663759397803962  0.4905332166408810  0.5691919698966554
  0.2497974162691819  0.4894938737472964  0.6111864579283901
  0.3330739034778025  0.4915962817321812  0.5690595547678765
  0.4163471157205861  0.4928765241120904  0.6111456704340966
  0.4997028120259819  0.4948150007548028  0.5693139576559312
  0.5828963852879936  0.4971518183507190  0.6117075928097158
  0.6661726999470493  0.4974296183901712  0.5696809044874480
  0.7494165067097209  0.4976694335940683  0.6120474074451336
  0.8327693503829720  0.4960127582509293  0.5697585950741398
  0.9163227510900798  0.4939720755234529  0.6115668248481457
  0.0830968674806056  0.4874166967330485  0.6973596311970733
  0.1667287796563245  0.4848281786043245  0.7379132323065271
  0.2499053195577824  0.4868846196822849  0.6970989989504256
  0.3335922999985848  0.4885152992631666  0.7378160408573634
  0.4162265271716323  0.4931554128911414  0.6968733883083167
  0.4992579138514648  0.4988328190691179  0.7381567954238725
  0.5825378266555837  0.5015943382162792  0.6973043617628791
  0.6655780634087844  0.5068452279055917  0.7389617983773855
  0.7497502643007020  0.5010747550288269  0.6980781542279598
  0.8333279605171953  0.4990063195288751  0.7384287613038120
  0.9164707818756451  0.4937599158048971  0.6974577997912292
 -0.0002588863423891  0.4892901697502497  0.7381517917784178
  0.9991533912931357  0.5022797511769833  0.2504502268242313
  0.1659956558708752  0.5012489069564565  0.2502294677899958
  0.3329321063608061  0.5011351144413243  0.2501856520864604
  0.6662410296159045  0.5031935608779902  0.2504544083107447
  0.8326425000791806  0.5032472574270623  0.2505518639965058
  0.1670095545358953  0.4823529019627936  0.8026741490456727
  0.3344289531984104  0.4860331099958919  0.8025351734369341
  0.4982991024165860  0.5023747772026685  0.8024833732963437
  0.6637964035932066  0.5275069940148538  0.8256592830426058
  0.8344514382611584  0.5007260055310243  0.8030840843044863
 -0.0003304756349290  0.4878676928081588  0.8029521850140038
  0.6995648560214538  0.3554200119072748  0.7559559977902440
  0.4997299817396722  0.5020368938758374  0.2502657506086844
  0.5168055787988542  0.2472997875804890  0.7959004455990289
  0.4988621355758283  0.3754794181454285  0.8086664242930526
  0.6008020333273834  0.3291009348025236  0.7059597023736220
  0.7180546766368373  0.3590052850234962  0.8133516361644444
  0.6462579185054425  0.3126973374067539  0.8466126545841718
  0.5548279437334518  0.3161889298286724  0.7825102177712780
  0.6940504722753061  0.4816737567199208  0.8795001728587447
  0.6371193257419588  0.5866317302169098  0.8430530441836128
  0.7033920911707082  0.4337613409875166  0.8535110218492461
 
  0.00000000E+00  0.00000000E+00  0.00000000E+00
  0.00000000E+00  0.00000000E+00  0.00000000E+00
  0.00000000E+00  0.00000000E+00  0.00000000E+00
  0.00000000E+00  0.00000000E+00  0.00000000E+00
  0.00000000E+00  0.00000000E+00  0.00000000E+00
  0.00000000E+00  0.00000000E+00  0.00000000E+00
  0.00000000E+00  0.00000000E+00  0.00000000E+00
  0.00000000E+00  0.00000000E+00  0.00000000E+00
  0.00000000E+00  0.00000000E+00  0.00000000E+00
  0.00000000E+00  0.00000000E+00  0.00000000E+00
  0.00000000E+00  0.00000000E+00  0.00000000E+00
  0.00000000E+00  0.00000000E+00  0.00000000E+00
  0.00000000E+00  0.00000000E+00  0.00000000E+00
  0.00000000E+00  0.00000000E+00  0.00000000E+00
  0.00000000E+00  0.00000000E+00  0.00000000E+00
  0.00000000E+00  0.00000000E+00  0.00000000E+00
  0.00000000E+00  0.00000000E+00  0.00000000E+00
  0.00000000E+00  0.00000000E+00  0.00000000E+00
  0.00000000E+00  0.00000000E+00  0.00000000E+00
  0.00000000E+00  0.00000000E+00  0.00000000E+00
  0.00000000E+00  0.00000000E+00  0.00000000E+00
  0.00000000E+00  0.00000000E+00  0.00000000E+00
  0.00000000E+00  0.00000000E+00  0.00000000E+00
  0.00000000E+00  0.00000000E+00  0.00000000E+00
  0.00000000E+00  0.00000000E+00  0.00000000E+00
  0.00000000E+00  0.00000000E+00  0.00000000E+00
  0.00000000E+00  0.00000000E+00  0.00000000E+00
  0.00000000E+00  0.00000000E+00  0.00000000E+00
  0.00000000E+00  0.00000000E+00  0.00000000E+00
  0.00000000E+00  0.00000000E+00  0.00000000E+00
  0.00000000E+00  0.00000000E+00  0.00000000E+00
  0.00000000E+00  0.00000000E+00  0.00000000E+00
  0.00000000E+00  0.00000000E+00  0.00000000E+00
  0.00000000E+00  0.00000000E+00  0.00000000E+00
  0.00000000E+00  0.00000000E+00  0.00000000E+00
  0.00000000E+00  0.00000000E+00  0.00000000E+00
  0.00000000E+00  0.00000000E+00  0.00000000E+00
  0.00000000E+00  0.00000000E+00  0.00000000E+00
  0.00000000E+00  0.00000000E+00  0.00000000E+00
  0.00000000E+00  0.00000000E+00  0.00000000E+00
  0.00000000E+00  0.00000000E+00  0.00000000E+00
  0.00000000E+00  0.00000000E+00  0.00000000E+00
  0.00000000E+00  0.00000000E+00  0.00000000E+00
  0.00000000E+00  0.00000000E+00  0.00000000E+00
  0.00000000E+00  0.00000000E+00  0.00000000E+00
  0.00000000E+00  0.00000000E+00  0.00000000E+00
  0.00000000E+00  0.00000000E+00  0.00000000E+00
  0.00000000E+00  0.00000000E+00  0.00000000E+00
  0.00000000E+00  0.00000000E+00  0.00000000E+00
  0.00000000E+00  0.00000000E+00  0.00000000E+00
  0.00000000E+00  0.00000000E+00  0.00000000E+00
  0.00000000E+00  0.00000000E+00  0.00000000E+00
  0.00000000E+00  0.00000000E+00  0.00000000E+00
  0.00000000E+00  0.00000000E+00  0.00000000E+00
  0.00000000E+00  0.00000000E+00  0.00000000E+00
  0.00000000E+00  0.00000000E+00  0.00000000E+00
  0.00000000E+00  0.00000000E+00  0.00000000E+00
  0.00000000E+00  0.00000000E+00  0.00000000E+00
  0.00000000E+00  0.00000000E+00  0.00000000E+00
  0.00000000E+00  0.00000000E+00  0.00000000E+00
  0.00000000E+00  0.00000000E+00  0.00000000E+00
  0.00000000E+00  0.00000000E+00  0.00000000E+00
  0.00000000E+00  0.00000000E+00  0.00000000E+00
  0.00000000E+00  0.00000000E+00  0.00000000E+00
  0.00000000E+00  0.00000000E+00  0.00000000E+00
  0.00000000E+00  0.00000000E+00  0.00000000E+00
  0.00000000E+00  0.00000000E+00  0.00000000E+00
  0.00000000E+00  0.00000000E+00  0.00000000E+00
  0.00000000E+00  0.00000000E+00  0.00000000E+00
  0.00000000E+00  0.00000000E+00  0.00000000E+00
