 C  H  C  H  O  H  O                    
   1.00000000000000     
    14.7630099300000008    0.0053200400000000   -0.0024942400000000
     0.0070480700000000   19.0443932300000007   -0.0030267900000000
    -0.0078782000000000   -0.0046446500000000   16.8297224800000009
   C    H    C    H    O    H    O 
    48     8     1     3     2     1     2
Direct
  0.9984679444277084  0.4981771806972720  0.3131359019014452
  0.0819557124419883  0.4984448611040445  0.3537034691453663
  0.1652449673187092  0.4978919422322044  0.3129586123180416
  0.2486715601355036  0.4983880841165257  0.3535894725953860
  0.3320649751867518  0.4978932721385501  0.3129716068832765
  0.4154063163782854  0.4986982447313147  0.3537204580083394
  0.4988002305073950  0.4982391276897343  0.3131120211637328
  0.5820429788537439  0.4992356250979339  0.3539424482395035
  0.6653953708268177  0.4987534863870952  0.3132545514953940
  0.7486356666875322  0.4995131683580703  0.3540805108397305
  0.8318696734630894  0.4986529013182899  0.3132769000244944
  0.9152710999206858  0.4988578034614157  0.3539623254541009
  0.0819944722725152  0.4992380509110919  0.4396751324292990
  0.1653693769741083  0.4996405169339695  0.4817148554255780
  0.2486965708547102  0.4994545979558838  0.4395606904344741
  0.3320591861923764  0.5003247382173259  0.4816941761611507
  0.4154324273364554  0.5001037927021659  0.4396903035170620
  0.4987981783867697  0.5012434975464141  0.4819144299630497
  0.5820745166096414  0.5008536102035593  0.4399025312955771
  0.6654291910528664  0.5019877912250672  0.4821630434239886
  0.7486631997410294  0.5010013902350758  0.4400494788139412
  0.8319697843734204  0.5008876060230822  0.4822459636969399
  0.9153094186951043  0.4997177977792100  0.4399529892483609
  0.9986531902264297  0.4996491677071982  0.4818992268148465
  0.9987582351127999  0.4996275710593855  0.5673731903413397
  0.0822237479239690  0.4997057759229472  0.6093862117632932
  0.1654474054478056  0.5002293242473042  0.5671772551409908
  0.2487616034591685  0.5013310698639435  0.6092408167579041
  0.3320194167329820  0.5015144444962674  0.5671138672783587
  0.4152823484918268  0.5027920329485461  0.6092570303265097
  0.4987215337630084  0.5026946615479672  0.5673787593918591
  0.5819455033052777  0.5040162042013542  0.6097507269406569
  0.6654044478707742  0.5039813088576651  0.5675769007930187
  0.7486270291370334  0.5047827667270415  0.6098925015139763
  0.8320096338494829  0.5017723491582645  0.5676348899467270
  0.9155988547926681  0.4997936883078614  0.6096701796951320
  0.0823064101943609  0.4996329737060248  0.6951729141672532
  0.1652417261134621  0.5012620621757214  0.7358691224764516
  0.2487702680448005  0.5023272012955545  0.6950911223272019
  0.3322194761762952  0.5041295861242527  0.7357989855809574
  0.4151947423792525  0.5043624497889331  0.6949778266736333
  0.4989899111906981  0.5059049043848833  0.7358958125254237
  0.5814415359375210  0.5054324437493720  0.6954616055569988
  0.6663332542352344  0.5059707292289674  0.7369761697333240
  0.7486348850517929  0.5073421287046730  0.6954860895265470
  0.8310991195697721  0.4971550839965777  0.7367097028616719
  0.9159748289963013  0.4980596756911629  0.6953408911015551
  0.9981256413656547  0.4981057985497450  0.7359154470639508
  0.9982521382070387  0.4975062445834477  0.2483017570118986
  0.1651477100584203  0.4971203441198009  0.2481242163554852
  0.3321467192202188  0.4969224858167019  0.2481420537517010
  0.6654489388989918  0.4975895536586374  0.2484322228081118
  0.8317235519162620  0.4977167771741045  0.2484493654943798
  0.1653387080319564  0.5017015788554591  0.8007136114217140
  0.3324434155252052  0.5052470155362185  0.8006285358789049
  0.4983252936516412  0.5074187134676859  0.8006372294172589
  0.6643169679612766  0.5188137047801952  0.8258225546559452
  0.8323828506762981  0.5024426363386592  0.8010750494959740
  0.9981452501946819  0.4973867232108105  0.8007448438789626
  0.4989504014621335  0.4971130895144663  0.2482885870842782
  0.6636658127410745  0.4612400061901784  0.8724946889361118
  0.6610630450440922  0.5784087560645064  0.8529592023018328
  0.6744518946535237  0.4202054528321517  0.8355787216968286
  0.7097716186708216  0.3803273274133960  0.7534676947371681
  0.7979109950807571  0.3857447609366763  0.7514867562956326
 
  0.00000000E+00  0.00000000E+00  0.00000000E+00
  0.00000000E+00  0.00000000E+00  0.00000000E+00
  0.00000000E+00  0.00000000E+00  0.00000000E+00
  0.00000000E+00  0.00000000E+00  0.00000000E+00
  0.00000000E+00  0.00000000E+00  0.00000000E+00
  0.00000000E+00  0.00000000E+00  0.00000000E+00
  0.00000000E+00  0.00000000E+00  0.00000000E+00
  0.00000000E+00  0.00000000E+00  0.00000000E+00
  0.00000000E+00  0.00000000E+00  0.00000000E+00
  0.00000000E+00  0.00000000E+00  0.00000000E+00
  0.00000000E+00  0.00000000E+00  0.00000000E+00
  0.00000000E+00  0.00000000E+00  0.00000000E+00
  0.00000000E+00  0.00000000E+00  0.00000000E+00
  0.00000000E+00  0.00000000E+00  0.00000000E+00
  0.00000000E+00  0.00000000E+00  0.00000000E+00
  0.00000000E+00  0.00000000E+00  0.00000000E+00
  0.00000000E+00  0.00000000E+00  0.00000000E+00
  0.00000000E+00  0.00000000E+00  0.00000000E+00
  0.00000000E+00  0.00000000E+00  0.00000000E+00
  0.00000000E+00  0.00000000E+00  0.00000000E+00
  0.00000000E+00  0.00000000E+00  0.00000000E+00
  0.00000000E+00  0.00000000E+00  0.00000000E+00
  0.00000000E+00  0.00000000E+00  0.00000000E+00
  0.00000000E+00  0.00000000E+00  0.00000000E+00
  0.00000000E+00  0.00000000E+00  0.00000000E+00
  0.00000000E+00  0.00000000E+00  0.00000000E+00
  0.00000000E+00  0.00000000E+00  0.00000000E+00
  0.00000000E+00  0.00000000E+00  0.00000000E+00
  0.00000000E+00  0.00000000E+00  0.00000000E+00
  0.00000000E+00  0.00000000E+00  0.00000000E+00
  0.00000000E+00  0.00000000E+00  0.00000000E+00
  0.00000000E+00  0.00000000E+00  0.00000000E+00
  0.00000000E+00  0.00000000E+00  0.00000000E+00
  0.00000000E+00  0.00000000E+00  0.00000000E+00
  0.00000000E+00  0.00000000E+00  0.00000000E+00
  0.00000000E+00  0.00000000E+00  0.00000000E+00
  0.00000000E+00  0.00000000E+00  0.00000000E+00
  0.00000000E+00  0.00000000E+00  0.00000000E+00
  0.00000000E+00  0.00000000E+00  0.00000000E+00
  0.00000000E+00  0.00000000E+00  0.00000000E+00
  0.00000000E+00  0.00000000E+00  0.00000000E+00
  0.00000000E+00  0.00000000E+00  0.00000000E+00
  0.00000000E+00  0.00000000E+00  0.00000000E+00
  0.00000000E+00  0.00000000E+00  0.00000000E+00
  0.00000000E+00  0.00000000E+00  0.00000000E+00
  0.00000000E+00  0.00000000E+00  0.00000000E+00
  0.00000000E+00  0.00000000E+00  0.00000000E+00
  0.00000000E+00  0.00000000E+00  0.00000000E+00
  0.00000000E+00  0.00000000E+00  0.00000000E+00
  0.00000000E+00  0.00000000E+00  0.00000000E+00
  0.00000000E+00  0.00000000E+00  0.00000000E+00
  0.00000000E+00  0.00000000E+00  0.00000000E+00
  0.00000000E+00  0.00000000E+00  0.00000000E+00
  0.00000000E+00  0.00000000E+00  0.00000000E+00
  0.00000000E+00  0.00000000E+00  0.00000000E+00
  0.00000000E+00  0.00000000E+00  0.00000000E+00
  0.00000000E+00  0.00000000E+00  0.00000000E+00
  0.00000000E+00  0.00000000E+00  0.00000000E+00
  0.00000000E+00  0.00000000E+00  0.00000000E+00
  0.00000000E+00  0.00000000E+00  0.00000000E+00
  0.00000000E+00  0.00000000E+00  0.00000000E+00
  0.00000000E+00  0.00000000E+00  0.00000000E+00
  0.00000000E+00  0.00000000E+00  0.00000000E+00
  0.00000000E+00  0.00000000E+00  0.00000000E+00
  0.00000000E+00  0.00000000E+00  0.00000000E+00
