 C  H  O  H  O  S                       
   1.00000000000000     
    14.7630099300000008    0.0053200400000000   -0.0024942400000000
     0.0070480700000000   19.0443932300000007   -0.0030267900000000
    -0.0078782000000000   -0.0046446500000000   16.8297224800000009
   C    H    O    H    O    S 
    48     8     1     4     5     1
Direct
  0.0023650150878288  0.4990457469312163  0.3160334382543315
  0.0856227518513851  0.4975925486624882  0.3572257695374854
  0.1688735934036289  0.4979560932150877  0.3167716714276935
  0.2521296258642449  0.4963631805559515  0.3578377943442081
  0.3349852644391805  0.4975366827775356  0.3167073974589664
  0.4184618673093853  0.4965241760672211  0.3573593272744076
  0.5013303177328385  0.4980216825863196  0.3159158331299037
  0.5850986734701172  0.4972281113130501  0.3561717062732150
  0.6682463209708740  0.4991209240927779  0.3151630579614956
  0.7519487993277808  0.4989538159593854  0.3558014889105511
  0.8353897503594813  0.4997816281520795  0.3152209691558906
  0.9187995610354102  0.4987774929035894  0.3562413527528889
  0.0861935800428192  0.4955226679078317  0.4432566648205998
  0.1696409315148169  0.4927414190722585  0.4858661463497800
  0.2528807776394709  0.4933582637994239  0.4438296764841427
  0.3364125890524527  0.4915818875136090  0.4861212355154818
  0.4191923505675345  0.4938930586833304  0.4431992389150328
  0.5029760275329516  0.4937709161632060  0.4846839382319449
  0.5856930526091235  0.4953631134817738  0.4421028141802231
  0.6693756667101534  0.4967828031385146  0.4839454956925138
  0.7524372119785122  0.4980958499539714  0.4417072799866097
  0.8359112009642147  0.4982643521175663  0.4840442734179771
  0.9191859066333127  0.4976474443194316  0.4422398988208355
  1.0027006287408504  0.4960886609565937  0.4847965440942921
  1.0032846910952524  0.4953614264461755  0.5700952316855821
  0.0865070142439568  0.4907368549030035  0.6126823487045939
  0.1703338305144838  0.4887070452832373  0.5712824576169190
  0.2536369148477943  0.4835123877724643  0.6141353771923574
  0.3376604796719792  0.4873886776062729  0.5715713792390253
  0.4212704866456265  0.4882906172592421  0.6131534683890937
  0.5042995015619997  0.4919518286238002  0.5701168250416264
  0.5878287360751527  0.4924672195255346  0.6108880003358542
  0.6698312921134204  0.4975355170595475  0.5692045194018421
  0.7540242245793215  0.5035549034228326  0.6116892525264421
  0.8365717652375394  0.5006437606763482  0.5694358211736782
  0.9202314549103006  0.4996713625235669  0.6118699046739332
  0.0865245825435969  0.4888999688561984  0.6979995369204595
  0.1710460125633441  0.4810283228183198  0.7386958858685060
  0.2527992096603865  0.4766484960352562  0.6990160689142246
  0.3409647065946204  0.4693020310427035  0.7459039937733996
  0.4246768578786172  0.4866559767482746  0.6988812974192004
  0.5043003540506172  0.4880098006306045  0.7393075481320114
  0.5930766935894404  0.4828331826647088  0.6992457965782067
  0.6699363616699643  0.5247044091707872  0.7396793737505154
  0.7566838589969698  0.5145991883559319  0.6958227013524896
  0.8371311732769524  0.5133798102596727  0.7371134695197674
  0.9209620709605921  0.5025096805438409  0.6971888554082036
  1.0035243409796393  0.4957895633812598  0.7383124370116588
  0.0025605650348304  0.5002272236955769  0.2512108532643642
  0.1688713929118192  0.4995421389643336  0.2519585692760384
  0.3343177127208388  0.4993849782992505  0.2519049918567736
  0.6675801769706766  0.5008049005431654  0.2503318206021517
  0.8352188869844891  0.5008580846872498  0.2503873190561173
  0.1700216695154042  0.4787769269220271  0.8034995052736814
  0.3363257914399465  0.5053391025764518  0.7969956896854291
  0.5045688388547798  0.4847910034504060  0.8037663631840221
  0.6638697284512453  0.5539840108907844  0.8042146255918117
  0.8352567025819625  0.5189284453870289  0.8015494434505425
  1.0026102810675475  0.4961411910782354  0.8031408893543405
  0.5905294224723072  0.3854330210882705  0.7441897783151041
  0.5002054666732865  0.5000817110486327  0.2511108254129924
  0.3752621660018840  0.2741695594534391  0.7712282322322773
  0.3510960452212561  0.4004611959022079  0.7830425559168734
  0.4203722791371866  0.3496653448832183  0.6573081578370942
  0.6374978596190642  0.4152877563262141  0.7157333547936300
  0.5090259658804807  0.3477149832036659  0.7815148394412135
  0.4196505520376529  0.3368131007136060  0.7427949171135864
 
  0.00000000E+00  0.00000000E+00  0.00000000E+00
  0.00000000E+00  0.00000000E+00  0.00000000E+00
  0.00000000E+00  0.00000000E+00  0.00000000E+00
  0.00000000E+00  0.00000000E+00  0.00000000E+00
  0.00000000E+00  0.00000000E+00  0.00000000E+00
  0.00000000E+00  0.00000000E+00  0.00000000E+00
  0.00000000E+00  0.00000000E+00  0.00000000E+00
  0.00000000E+00  0.00000000E+00  0.00000000E+00
  0.00000000E+00  0.00000000E+00  0.00000000E+00
  0.00000000E+00  0.00000000E+00  0.00000000E+00
  0.00000000E+00  0.00000000E+00  0.00000000E+00
  0.00000000E+00  0.00000000E+00  0.00000000E+00
  0.00000000E+00  0.00000000E+00  0.00000000E+00
  0.00000000E+00  0.00000000E+00  0.00000000E+00
  0.00000000E+00  0.00000000E+00  0.00000000E+00
  0.00000000E+00  0.00000000E+00  0.00000000E+00
  0.00000000E+00  0.00000000E+00  0.00000000E+00
  0.00000000E+00  0.00000000E+00  0.00000000E+00
  0.00000000E+00  0.00000000E+00  0.00000000E+00
  0.00000000E+00  0.00000000E+00  0.00000000E+00
  0.00000000E+00  0.00000000E+00  0.00000000E+00
  0.00000000E+00  0.00000000E+00  0.00000000E+00
  0.00000000E+00  0.00000000E+00  0.00000000E+00
  0.00000000E+00  0.00000000E+00  0.00000000E+00
  0.00000000E+00  0.00000000E+00  0.00000000E+00
  0.00000000E+00  0.00000000E+00  0.00000000E+00
  0.00000000E+00  0.00000000E+00  0.00000000E+00
  0.00000000E+00  0.00000000E+00  0.00000000E+00
  0.00000000E+00  0.00000000E+00  0.00000000E+00
  0.00000000E+00  0.00000000E+00  0.00000000E+00
  0.00000000E+00  0.00000000E+00  0.00000000E+00
  0.00000000E+00  0.00000000E+00  0.00000000E+00
  0.00000000E+00  0.00000000E+00  0.00000000E+00
  0.00000000E+00  0.00000000E+00  0.00000000E+00
  0.00000000E+00  0.00000000E+00  0.00000000E+00
  0.00000000E+00  0.00000000E+00  0.00000000E+00
  0.00000000E+00  0.00000000E+00  0.00000000E+00
  0.00000000E+00  0.00000000E+00  0.00000000E+00
  0.00000000E+00  0.00000000E+00  0.00000000E+00
  0.00000000E+00  0.00000000E+00  0.00000000E+00
  0.00000000E+00  0.00000000E+00  0.00000000E+00
  0.00000000E+00  0.00000000E+00  0.00000000E+00
  0.00000000E+00  0.00000000E+00  0.00000000E+00
  0.00000000E+00  0.00000000E+00  0.00000000E+00
  0.00000000E+00  0.00000000E+00  0.00000000E+00
  0.00000000E+00  0.00000000E+00  0.00000000E+00
  0.00000000E+00  0.00000000E+00  0.00000000E+00
  0.00000000E+00  0.00000000E+00  0.00000000E+00
  0.00000000E+00  0.00000000E+00  0.00000000E+00
  0.00000000E+00  0.00000000E+00  0.00000000E+00
  0.00000000E+00  0.00000000E+00  0.00000000E+00
  0.00000000E+00  0.00000000E+00  0.00000000E+00
  0.00000000E+00  0.00000000E+00  0.00000000E+00
  0.00000000E+00  0.00000000E+00  0.00000000E+00
  0.00000000E+00  0.00000000E+00  0.00000000E+00
  0.00000000E+00  0.00000000E+00  0.00000000E+00
  0.00000000E+00  0.00000000E+00  0.00000000E+00
  0.00000000E+00  0.00000000E+00  0.00000000E+00
  0.00000000E+00  0.00000000E+00  0.00000000E+00
  0.00000000E+00  0.00000000E+00  0.00000000E+00
  0.00000000E+00  0.00000000E+00  0.00000000E+00
  0.00000000E+00  0.00000000E+00  0.00000000E+00
  0.00000000E+00  0.00000000E+00  0.00000000E+00
  0.00000000E+00  0.00000000E+00  0.00000000E+00
  0.00000000E+00  0.00000000E+00  0.00000000E+00
  0.00000000E+00  0.00000000E+00  0.00000000E+00
  0.00000000E+00  0.00000000E+00  0.00000000E+00
