 C  H  C  H  O  S  O  H                 
   1.00000000000000     
    14.7630099300000008    0.0053200400000000   -0.0024942400000000
     0.0070480700000000   19.0443932300000007   -0.0030267900000000
    -0.0078782000000000   -0.0046446500000000   16.8297224800000009
   C    H    C    H    O    S    O    H 
    48     8     1     4     5     1     2     1
Direct
  0.9989240309099249  0.4990432251998212  0.3117360188328528
  0.0825282532438079  0.4992210466799971  0.3522700764709368
  0.1660034916576094  0.4987934004125952  0.3116657010525865
  0.2492369751721769  0.5000954202761489  0.3527223157924741
  0.3329410325279122  0.5003450919098945  0.3125854305668979
  0.4159345297486647  0.5016180381563087  0.3540794969700078
  0.4993008910267860  0.5017288742208014  0.3137509922229098
  0.5824759037403742  0.5021150597108937  0.3549642407090934
  0.6655719363315273  0.5018120583039501  0.3136554491813890
  0.7489837652895628  0.5015316440629699  0.3539565902881405
  0.8320228988009409  0.5006892368053083  0.3126010838129071
  0.9157525844573389  0.5002114168744626  0.3527885956098484
  0.0826088557325581  0.5002344141833536  0.4382312931261921
  0.1657754979223897  0.5009090388685933  0.4805517018893621
  0.2490983824322898  0.5012525487971421  0.4386349324379084
  0.3321996448618426  0.5021836229522643  0.4812465552813462
  0.4157306839012583  0.5022245636063654  0.4398812493773490
  0.4987589225304120  0.5018809345328293  0.4829528626364779
  0.5824771813219491  0.5018540055131027  0.4407895053836952
  0.6663750409330987  0.5009158839129001  0.4828627404014996
  0.7492824487860306  0.5014241484715479  0.4398265599006397
  0.8328718790019353  0.5011597070620482  0.4812769472241562
  0.9160286775818353  0.5008545215344070  0.4387045912596628
  0.9993582972106644  0.5006633316640475  0.4805307412958769
  0.9996088685705374  0.5008875154823598  0.5658408872464027
  0.0826754637536849  0.5007686178227440  0.6080812637184259
  0.1657050957347888  0.5011320474310239  0.5658884493635442
  0.2485836035724835  0.5009804467920600  0.6082772149466714
  0.3318260951274572  0.5015604429027408  0.5663624620147483
  0.4147237038105135  0.4984624319576281  0.6090054340699139
  0.4980073231193347  0.4991753575447202  0.5677289907556413
  0.5826590366446692  0.4947726744691859  0.6113121909464191
  0.6671421221624260  0.4977592209665764  0.5676767609688385
  0.7501775578195619  0.4965116475441315  0.6091559470545579
  0.8333268956048192  0.5000784557679814  0.5664264770118629
  0.9166902681526284  0.5004339987676445  0.6082008787406082
  0.0827628543739160  0.4997746058674862  0.6936862065591681
  0.1660826714980826  0.4983494029178800  0.7345366018482112
  0.2482099065696603  0.4990424183945742  0.6937323254933304
  0.3325444551295178  0.4937239331560794  0.7344061556321538
  0.4125616627557094  0.4910818877824981  0.6936360040597285
  0.4965993615497766  0.4694443453413947  0.7363639945668835
  0.5821845387176043  0.4835178631360059  0.6920020844806664
  0.6676645657646686  0.4704984793456441  0.7380998805106428
  0.7525470613740487  0.4911399451421168  0.6941960219231608
  0.8328078019625406  0.4951803034546460  0.7345916162991826
  0.9172605411496947  0.4995282728703984  0.6936876996286576
  0.9993483082236427  0.4993045359043485  0.7345388938558572
  0.9985626768405736  0.4981877103555979  0.2469112191409674
  0.1662273787947309  0.4976639090978771  0.2468486799399993
  0.3337384461082222  0.4993040888007603  0.2477679868710479
  0.6649056175327558  0.5014934674398180  0.2488333785568203
  0.8312458427687623  0.5002400878906612  0.2477708628988943
  0.1661983010667973  0.4955195151874945  0.7992727566394924
  0.3322696192300673  0.4865767353729350  0.7986950811062098
  0.4988067665365378  0.4944038779988967  0.7952500300059798
  0.6644051357165540  0.5087079366857212  0.8200500246532224
  0.8340003236240406  0.4921817507758104  0.7992758224108679
  0.9993257542627968  0.4977441443204446  0.7993406900889919
  0.6136444326223804  0.3763749191736834  0.7523204141918864
  0.4998446306298280  0.5011010765934194  0.2489273546888414
  0.4916129491041950  0.2706653531881677  0.7180456810737332
  0.3543192402227531  0.3421151307769734  0.6919307816764716
  0.4899910671620077  0.3570579639881917  0.6087842911349138
  0.6768881317446530  0.3948784617142246  0.7526528536286506
  0.4960242924351427  0.3936511692007095  0.7551036861352936
  0.4518462644944680  0.3336660960230920  0.6843870043994738
  0.6826737504794408  0.4650740133948478  0.8814224479877548
  0.6487609989389804  0.5711919955792615  0.8277237658782869
  0.6892268648321682  0.4182940351996765  0.8549935886398721
 
  0.00000000E+00  0.00000000E+00  0.00000000E+00
  0.00000000E+00  0.00000000E+00  0.00000000E+00
  0.00000000E+00  0.00000000E+00  0.00000000E+00
  0.00000000E+00  0.00000000E+00  0.00000000E+00
  0.00000000E+00  0.00000000E+00  0.00000000E+00
  0.00000000E+00  0.00000000E+00  0.00000000E+00
  0.00000000E+00  0.00000000E+00  0.00000000E+00
  0.00000000E+00  0.00000000E+00  0.00000000E+00
  0.00000000E+00  0.00000000E+00  0.00000000E+00
  0.00000000E+00  0.00000000E+00  0.00000000E+00
  0.00000000E+00  0.00000000E+00  0.00000000E+00
  0.00000000E+00  0.00000000E+00  0.00000000E+00
  0.00000000E+00  0.00000000E+00  0.00000000E+00
  0.00000000E+00  0.00000000E+00  0.00000000E+00
  0.00000000E+00  0.00000000E+00  0.00000000E+00
  0.00000000E+00  0.00000000E+00  0.00000000E+00
  0.00000000E+00  0.00000000E+00  0.00000000E+00
  0.00000000E+00  0.00000000E+00  0.00000000E+00
  0.00000000E+00  0.00000000E+00  0.00000000E+00
  0.00000000E+00  0.00000000E+00  0.00000000E+00
  0.00000000E+00  0.00000000E+00  0.00000000E+00
  0.00000000E+00  0.00000000E+00  0.00000000E+00
  0.00000000E+00  0.00000000E+00  0.00000000E+00
  0.00000000E+00  0.00000000E+00  0.00000000E+00
  0.00000000E+00  0.00000000E+00  0.00000000E+00
  0.00000000E+00  0.00000000E+00  0.00000000E+00
  0.00000000E+00  0.00000000E+00  0.00000000E+00
  0.00000000E+00  0.00000000E+00  0.00000000E+00
  0.00000000E+00  0.00000000E+00  0.00000000E+00
  0.00000000E+00  0.00000000E+00  0.00000000E+00
  0.00000000E+00  0.00000000E+00  0.00000000E+00
  0.00000000E+00  0.00000000E+00  0.00000000E+00
  0.00000000E+00  0.00000000E+00  0.00000000E+00
  0.00000000E+00  0.00000000E+00  0.00000000E+00
  0.00000000E+00  0.00000000E+00  0.00000000E+00
  0.00000000E+00  0.00000000E+00  0.00000000E+00
  0.00000000E+00  0.00000000E+00  0.00000000E+00
  0.00000000E+00  0.00000000E+00  0.00000000E+00
  0.00000000E+00  0.00000000E+00  0.00000000E+00
  0.00000000E+00  0.00000000E+00  0.00000000E+00
  0.00000000E+00  0.00000000E+00  0.00000000E+00
  0.00000000E+00  0.00000000E+00  0.00000000E+00
  0.00000000E+00  0.00000000E+00  0.00000000E+00
  0.00000000E+00  0.00000000E+00  0.00000000E+00
  0.00000000E+00  0.00000000E+00  0.00000000E+00
  0.00000000E+00  0.00000000E+00  0.00000000E+00
  0.00000000E+00  0.00000000E+00  0.00000000E+00
  0.00000000E+00  0.00000000E+00  0.00000000E+00
  0.00000000E+00  0.00000000E+00  0.00000000E+00
  0.00000000E+00  0.00000000E+00  0.00000000E+00
  0.00000000E+00  0.00000000E+00  0.00000000E+00
  0.00000000E+00  0.00000000E+00  0.00000000E+00
  0.00000000E+00  0.00000000E+00  0.00000000E+00
  0.00000000E+00  0.00000000E+00  0.00000000E+00
  0.00000000E+00  0.00000000E+00  0.00000000E+00
  0.00000000E+00  0.00000000E+00  0.00000000E+00
  0.00000000E+00  0.00000000E+00  0.00000000E+00
  0.00000000E+00  0.00000000E+00  0.00000000E+00
  0.00000000E+00  0.00000000E+00  0.00000000E+00
  0.00000000E+00  0.00000000E+00  0.00000000E+00
  0.00000000E+00  0.00000000E+00  0.00000000E+00
  0.00000000E+00  0.00000000E+00  0.00000000E+00
  0.00000000E+00  0.00000000E+00  0.00000000E+00
  0.00000000E+00  0.00000000E+00  0.00000000E+00
  0.00000000E+00  0.00000000E+00  0.00000000E+00
  0.00000000E+00  0.00000000E+00  0.00000000E+00
  0.00000000E+00  0.00000000E+00  0.00000000E+00
  0.00000000E+00  0.00000000E+00  0.00000000E+00
  0.00000000E+00  0.00000000E+00  0.00000000E+00
  0.00000000E+00  0.00000000E+00  0.00000000E+00
