 C  H  C  H  O  H                       
   1.00000000000000     
    14.7630099300000008    0.0053200400000000   -0.0024942400000000
     0.0070480700000000   19.0443932300000007   -0.0030267900000000
    -0.0078782000000000   -0.0046446500000000   16.8297224800000009
   C    H    C    H    O    H 
    48     8     1     3     2     1
Direct
  0.9992549656129353  0.4998898084503372  0.3151732051308977
  0.0827076293350604  0.4978998614607256  0.3556302754913159
  0.1660207876445955  0.4988391958801709  0.3149383983439351
  0.2494440604115782  0.4973010604184261  0.3555136512734563
  0.3328246373827264  0.4988151339826727  0.3149670145725266
  0.4161888135695399  0.4980297879572574  0.3556886592264962
  0.4995509422190172  0.4998463980121009  0.3151766177743272
  0.5828325193050621  0.4993969168796062  0.3559959673231007
  0.6661208737287032  0.5009536130629310  0.3153855245882528
  0.7494127721412331  0.4999629673257825  0.3561106158072356
  0.8326438357451448  0.5009212352923846  0.3153720328282233
  0.9160015519341437  0.4992132137969815  0.3559529743768925
  0.0827763941626264  0.4950279683008388  0.4416004325547713
  0.1661817158120736  0.4931959850133983  0.4835940832076064
  0.2494949602480996  0.4944908703392707  0.4414869921377965
  0.3328546976695577  0.4937873816010085  0.4836019741388569
  0.4162440468495399  0.4956860059819957  0.4416812781437972
  0.4995634530105839  0.4958836078131741  0.4839294677453080
  0.5829016906073909  0.4975350607322067  0.4420087254068223
  0.6662001700696870  0.4975121960474674  0.4842639835202939
  0.7494587554560632  0.4980114411540007  0.4421308080306809
  0.8327673119798389  0.4966782452987790  0.4842109215928748
  0.9160407066508038  0.4967364091844249  0.4419551603179880
  0.9995070286601143  0.4946164653341105  0.4838013506559221
  0.9996411558488696  0.4925439165460650  0.5692982345943515
  0.0830089928542283  0.4901381765501017  0.6112370170433714
  0.1662559084232064  0.4905704796999075  0.5691006702226530
  0.2496028634092342  0.4897464717852074  0.6111326513094111
  0.3328411624450021  0.4919228830595967  0.5690999317887729
  0.4161018742751992  0.4935040993540503  0.6112658350966751
  0.4995080725190358  0.4954507842817867  0.5694842281904967
  0.5827771428956031  0.4978325440208926  0.6118612880681333
  0.6662366943212068  0.4976604342725399  0.5698885732492150
  0.7495475717064405  0.4975011458128180  0.6122379567862316
  0.8328501427180596  0.4958099136189568  0.5698367483001432
  0.9164262826905252  0.4939047508400407  0.6115376465374498
  0.0830739197203694  0.4880372359006541  0.6972079653949140
  0.1664483852157997  0.4857719638243418  0.7377672062774742
  0.2497097662524647  0.4876084153193592  0.6970978660216671
  0.3330004300611014  0.4895029311767055  0.7378151516538398
  0.4160692186489984  0.4938586196750326  0.6971592207282763
  0.4989703786949922  0.4995944005282268  0.7379840199575423
  0.5822817396302246  0.5021298570301785  0.6976865753903921
  0.6659313482733346  0.5071156296604736  0.7388000120379842
  0.7499566002849998  0.5009454287359751  0.6984146727007755
  0.8337429295995212  0.4995448811576869  0.7384112639353483
  0.9166306708195407  0.4942157270118893  0.6974402793487904
  0.9998734071384137  0.4901690427172310  0.7379770280047221
  0.9990234438214332  0.5021080540385442  0.2503776187350161
  0.1659215242488211  0.5011576860926978  0.2501451786327812
  0.3328888436761654  0.5010056597680346  0.2501705568354681
  0.6661410860773341  0.5028071443267252  0.2505788552409461
  0.8324864719744279  0.5028917242656349  0.2505694062688619
  0.1665719260539955  0.4840460412997044  0.8025864087714131
  0.3331333262585920  0.4887918230985067  0.8026499698973316
  0.4978512407500270  0.5020947367948391  0.8026532133374957
  0.6637415513286054  0.5259720948362295  0.8251831458435059
  0.8356545783505328  0.5026814238099181  0.8030300980303844
  1.0000079001728071  0.4895603311092797  0.8028210931303028
  0.4997017227996728  0.5017388101678122  0.2503729727935974
  0.6932655177053304  0.4754023405824979  0.8780400738609536
  0.6376723144279550  0.5824676439717014  0.8503635097936272
  0.7080849625324036  0.4332981151893487  0.8475472651993414
 
  0.00000000E+00  0.00000000E+00  0.00000000E+00
  0.00000000E+00  0.00000000E+00  0.00000000E+00
  0.00000000E+00  0.00000000E+00  0.00000000E+00
  0.00000000E+00  0.00000000E+00  0.00000000E+00
  0.00000000E+00  0.00000000E+00  0.00000000E+00
  0.00000000E+00  0.00000000E+00  0.00000000E+00
  0.00000000E+00  0.00000000E+00  0.00000000E+00
  0.00000000E+00  0.00000000E+00  0.00000000E+00
  0.00000000E+00  0.00000000E+00  0.00000000E+00
  0.00000000E+00  0.00000000E+00  0.00000000E+00
  0.00000000E+00  0.00000000E+00  0.00000000E+00
  0.00000000E+00  0.00000000E+00  0.00000000E+00
  0.00000000E+00  0.00000000E+00  0.00000000E+00
  0.00000000E+00  0.00000000E+00  0.00000000E+00
  0.00000000E+00  0.00000000E+00  0.00000000E+00
  0.00000000E+00  0.00000000E+00  0.00000000E+00
  0.00000000E+00  0.00000000E+00  0.00000000E+00
  0.00000000E+00  0.00000000E+00  0.00000000E+00
  0.00000000E+00  0.00000000E+00  0.00000000E+00
  0.00000000E+00  0.00000000E+00  0.00000000E+00
  0.00000000E+00  0.00000000E+00  0.00000000E+00
  0.00000000E+00  0.00000000E+00  0.00000000E+00
  0.00000000E+00  0.00000000E+00  0.00000000E+00
  0.00000000E+00  0.00000000E+00  0.00000000E+00
  0.00000000E+00  0.00000000E+00  0.00000000E+00
  0.00000000E+00  0.00000000E+00  0.00000000E+00
  0.00000000E+00  0.00000000E+00  0.00000000E+00
  0.00000000E+00  0.00000000E+00  0.00000000E+00
  0.00000000E+00  0.00000000E+00  0.00000000E+00
  0.00000000E+00  0.00000000E+00  0.00000000E+00
  0.00000000E+00  0.00000000E+00  0.00000000E+00
  0.00000000E+00  0.00000000E+00  0.00000000E+00
  0.00000000E+00  0.00000000E+00  0.00000000E+00
  0.00000000E+00  0.00000000E+00  0.00000000E+00
  0.00000000E+00  0.00000000E+00  0.00000000E+00
  0.00000000E+00  0.00000000E+00  0.00000000E+00
  0.00000000E+00  0.00000000E+00  0.00000000E+00
  0.00000000E+00  0.00000000E+00  0.00000000E+00
  0.00000000E+00  0.00000000E+00  0.00000000E+00
  0.00000000E+00  0.00000000E+00  0.00000000E+00
  0.00000000E+00  0.00000000E+00  0.00000000E+00
  0.00000000E+00  0.00000000E+00  0.00000000E+00
  0.00000000E+00  0.00000000E+00  0.00000000E+00
  0.00000000E+00  0.00000000E+00  0.00000000E+00
  0.00000000E+00  0.00000000E+00  0.00000000E+00
  0.00000000E+00  0.00000000E+00  0.00000000E+00
  0.00000000E+00  0.00000000E+00  0.00000000E+00
  0.00000000E+00  0.00000000E+00  0.00000000E+00
  0.00000000E+00  0.00000000E+00  0.00000000E+00
  0.00000000E+00  0.00000000E+00  0.00000000E+00
  0.00000000E+00  0.00000000E+00  0.00000000E+00
  0.00000000E+00  0.00000000E+00  0.00000000E+00
  0.00000000E+00  0.00000000E+00  0.00000000E+00
  0.00000000E+00  0.00000000E+00  0.00000000E+00
  0.00000000E+00  0.00000000E+00  0.00000000E+00
  0.00000000E+00  0.00000000E+00  0.00000000E+00
  0.00000000E+00  0.00000000E+00  0.00000000E+00
  0.00000000E+00  0.00000000E+00  0.00000000E+00
  0.00000000E+00  0.00000000E+00  0.00000000E+00
  0.00000000E+00  0.00000000E+00  0.00000000E+00
  0.00000000E+00  0.00000000E+00  0.00000000E+00
  0.00000000E+00  0.00000000E+00  0.00000000E+00
  0.00000000E+00  0.00000000E+00  0.00000000E+00
