 C  H  O  H  O  S  H                    
   1.00000000000000     
    14.7630099300000008    0.0053200400000000   -0.0024942400000000
     0.0070480700000000   19.0443932300000007   -0.0030267900000000
    -0.0078782000000000   -0.0046446500000000   16.8297224800000009
   C    H    O    H    O    S    H 
    48     8     1     4     5     1     1
Direct
  0.9973103877821744  0.4996621706873862  0.3117986462983440
  0.0807201747132357  0.4979881808848374  0.3523925815600228
  0.1640111258756772  0.4976869541754496  0.3116053087548065
  0.2473944682386478  0.4970153438226206  0.3522672805797851
  0.3307599832640936  0.4977639893875563  0.3115696389773536
  0.4140796091408475  0.4983878061754851  0.3523472014892988
  0.4974330505257952  0.4997481465752728  0.3116848512828064
  0.5807580115503287  0.5007339867744610  0.3524451010761642
  0.6640483945606287  0.5017570492513463  0.3117530296476018
  0.7473853532029414  0.5018977305029241  0.3525599555694590
  0.8306723434483985  0.5017632470799532  0.3118948461265750
  0.9140615643386202  0.5004426741946842  0.3525770309266611
  0.0807949655474617  0.4968426367508659  0.4383721240195425
  0.1641835809135420  0.4955582897230132  0.4804167753548392
  0.2474321992733504  0.4960851872345989  0.4382482901781238
  0.3308466574543596  0.4964397927417267  0.4803406421626599
  0.4141198652560399  0.4979128004815847  0.4383263276839360
  0.4975229046677300  0.4991108355238220  0.4804889001922810
  0.5807802493898485  0.5004764371129627  0.4384527049340847
  0.6640941468034876  0.5013025977060696  0.4807062526427699
  0.7474758471037719  0.5016087610063222  0.4385720158217326
  0.8307657877672368  0.5007671138415282  0.4806762641815011
  0.9141478102051411  0.4996430596927142  0.4385640700437374
  0.9975085544663435  0.4976388313484477  0.4805452081378280
  0.9976069878032788  0.4964058617764043  0.5660517117764337
  0.0809947273172079  0.4942586419701880  0.6081738163345407
  0.1642913215504792  0.4944290034424084  0.5659309902108173
  0.2476709021396083  0.4944985275050850  0.6080109084083375
  0.3309121653946140  0.4959608981140901  0.5657799338942250
  0.4141345962837251  0.4973304019265766  0.6078914438069973
  0.4975527819979879  0.4988003016825827  0.5659974786606767
  0.5808617591442605  0.4996447202838368  0.6082045638662887
  0.6640824974764580  0.5011178144363625  0.5661236684949321
  0.7474515033648723  0.5014020653819886  0.6083743166548076
  0.8308115040976697  0.5003630016811310  0.5662343890577963
  0.9143015713125446  0.4977484618941996  0.6082073720778540
  0.0811667330652667  0.4923494403007358  0.6941676226279523
  0.1646934869139719  0.4914750205215311  0.7348523966728768
  0.2477417221421644  0.4937480103198972  0.6939217805867441
  0.3311755071353586  0.4957509604295227  0.7348798771377445
  0.4138242700498043  0.4975700035821251  0.6935651418768435
  0.4971319674206483  0.4978471113755084  0.7347285772770433
  0.5800703479962696  0.4980266190109888  0.6940546254578411
  0.6642531292865959  0.4960771354452429  0.7359691287338925
  0.7484799261424611  0.4995461659608348  0.6940873165044448
  0.8310595826875111  0.4964164778876906  0.7349736301276434
  0.9145970926787317  0.4956805511460075  0.6940802966199959
  0.9977280779546926  0.4924199338122763  0.7348908615927968
  0.9971759010262364  0.5004298364463248  0.2469736470499815
  0.1639141894074765  0.4984293629458339  0.2467815706212425
  0.3307653807670680  0.4981760426520480  0.2467433855133952
  0.6640555555145439  0.5018839882172029  0.2469258096534622
  0.8306274960494674  0.5021841270335942  0.2470632219936701
  0.1652075451674397  0.4893542997625834  0.7996112977063632
  0.3319802213742639  0.4935677039192132  0.7994279105944536
  0.4954240729423854  0.4977700751524516  0.7993397495970289
  0.6669573366393827  0.4888372170664879  0.8152524697389121
  0.8304349927187858  0.4936417208580500  0.7995708543383864
  0.9976094137877313  0.4903510367667517  0.7996652589483608
  0.5688670423860628  0.3604998885105745  0.7624109698251523
  0.4974383892457059  0.4999263621520647  0.2468542405467338
  0.3939972569693744  0.2572163490214739  0.8318488266877044
  0.3885820154585459  0.3861593769561858  0.8504296564864643
  0.4599544323871029  0.3375556283997410  0.7302356812817304
  0.5993179291286012  0.3643232750468199  0.8158237317603984
  0.5365623199568993  0.3178958805147568  0.8595954363508429
  0.4318251369755535  0.3252875407103277  0.8135438232963714
  0.6236885522418424  0.4499894955237320  0.8309716609333734
 
  0.00000000E+00  0.00000000E+00  0.00000000E+00
  0.00000000E+00  0.00000000E+00  0.00000000E+00
  0.00000000E+00  0.00000000E+00  0.00000000E+00
  0.00000000E+00  0.00000000E+00  0.00000000E+00
  0.00000000E+00  0.00000000E+00  0.00000000E+00
  0.00000000E+00  0.00000000E+00  0.00000000E+00
  0.00000000E+00  0.00000000E+00  0.00000000E+00
  0.00000000E+00  0.00000000E+00  0.00000000E+00
  0.00000000E+00  0.00000000E+00  0.00000000E+00
  0.00000000E+00  0.00000000E+00  0.00000000E+00
  0.00000000E+00  0.00000000E+00  0.00000000E+00
  0.00000000E+00  0.00000000E+00  0.00000000E+00
  0.00000000E+00  0.00000000E+00  0.00000000E+00
  0.00000000E+00  0.00000000E+00  0.00000000E+00
  0.00000000E+00  0.00000000E+00  0.00000000E+00
  0.00000000E+00  0.00000000E+00  0.00000000E+00
  0.00000000E+00  0.00000000E+00  0.00000000E+00
  0.00000000E+00  0.00000000E+00  0.00000000E+00
  0.00000000E+00  0.00000000E+00  0.00000000E+00
  0.00000000E+00  0.00000000E+00  0.00000000E+00
  0.00000000E+00  0.00000000E+00  0.00000000E+00
  0.00000000E+00  0.00000000E+00  0.00000000E+00
  0.00000000E+00  0.00000000E+00  0.00000000E+00
  0.00000000E+00  0.00000000E+00  0.00000000E+00
  0.00000000E+00  0.00000000E+00  0.00000000E+00
  0.00000000E+00  0.00000000E+00  0.00000000E+00
  0.00000000E+00  0.00000000E+00  0.00000000E+00
  0.00000000E+00  0.00000000E+00  0.00000000E+00
  0.00000000E+00  0.00000000E+00  0.00000000E+00
  0.00000000E+00  0.00000000E+00  0.00000000E+00
  0.00000000E+00  0.00000000E+00  0.00000000E+00
  0.00000000E+00  0.00000000E+00  0.00000000E+00
  0.00000000E+00  0.00000000E+00  0.00000000E+00
  0.00000000E+00  0.00000000E+00  0.00000000E+00
  0.00000000E+00  0.00000000E+00  0.00000000E+00
  0.00000000E+00  0.00000000E+00  0.00000000E+00
  0.00000000E+00  0.00000000E+00  0.00000000E+00
  0.00000000E+00  0.00000000E+00  0.00000000E+00
  0.00000000E+00  0.00000000E+00  0.00000000E+00
  0.00000000E+00  0.00000000E+00  0.00000000E+00
  0.00000000E+00  0.00000000E+00  0.00000000E+00
  0.00000000E+00  0.00000000E+00  0.00000000E+00
  0.00000000E+00  0.00000000E+00  0.00000000E+00
  0.00000000E+00  0.00000000E+00  0.00000000E+00
  0.00000000E+00  0.00000000E+00  0.00000000E+00
  0.00000000E+00  0.00000000E+00  0.00000000E+00
  0.00000000E+00  0.00000000E+00  0.00000000E+00
  0.00000000E+00  0.00000000E+00  0.00000000E+00
  0.00000000E+00  0.00000000E+00  0.00000000E+00
  0.00000000E+00  0.00000000E+00  0.00000000E+00
  0.00000000E+00  0.00000000E+00  0.00000000E+00
  0.00000000E+00  0.00000000E+00  0.00000000E+00
  0.00000000E+00  0.00000000E+00  0.00000000E+00
  0.00000000E+00  0.00000000E+00  0.00000000E+00
  0.00000000E+00  0.00000000E+00  0.00000000E+00
  0.00000000E+00  0.00000000E+00  0.00000000E+00
  0.00000000E+00  0.00000000E+00  0.00000000E+00
  0.00000000E+00  0.00000000E+00  0.00000000E+00
  0.00000000E+00  0.00000000E+00  0.00000000E+00
  0.00000000E+00  0.00000000E+00  0.00000000E+00
  0.00000000E+00  0.00000000E+00  0.00000000E+00
  0.00000000E+00  0.00000000E+00  0.00000000E+00
  0.00000000E+00  0.00000000E+00  0.00000000E+00
  0.00000000E+00  0.00000000E+00  0.00000000E+00
  0.00000000E+00  0.00000000E+00  0.00000000E+00
  0.00000000E+00  0.00000000E+00  0.00000000E+00
  0.00000000E+00  0.00000000E+00  0.00000000E+00
  0.00000000E+00  0.00000000E+00  0.00000000E+00
