 C  H  O  H  O  S  H                    
   1.00000000000000     
    14.7630099300000008    0.0053200400000000   -0.0024942400000000
     0.0070480700000000   19.0443932300000007   -0.0030267900000000
    -0.0078782000000000   -0.0046446500000000   16.8297224800000009
   C    H    O    H    O    S    H 
    48     8     1     4     5     1     1
Direct
  0.9975396289299809  0.4997846694340687  0.3099406317627147
  0.0810689088726616  0.4990883165977308  0.3504755999499931
  0.1644368907933015  0.4981288366220331  0.3096960582557572
  0.2478615642818965  0.4982724364896556  0.3504670507771228
  0.3313284902309863  0.4982158878479506  0.3099146721907579
  0.4146049363139034  0.4991695709318431  0.3509690961789053
  0.4980160801871524  0.4997253239976198  0.3104255651318649
  0.5811764885741769  0.5002154335615601  0.3515801086214104
  0.6644032344450870  0.5008794809237266  0.3107060932465842
  0.7476916493363986  0.5009579727215817  0.3515373810711483
  0.8308041201661850  0.5012487438411598  0.3104500279024106
  0.9143262657239442  0.5007020633774099  0.3509425344161340
  0.0811801554084190  0.4994672448311570  0.4364602908228959
  0.1646001645616118  0.4990717245337615  0.4785341601689254
  0.2479186609714557  0.4988503598670406  0.4364366382840862
  0.3311556791751613  0.4993231021347090  0.4787399746705819
  0.4146558734720304  0.4996544903671563  0.4368944693112978
  0.4978539870295177  0.4998979837407295  0.4794110410991672
  0.5812133396024918  0.4995996849283135  0.4374948643234678
  0.6645737685676536  0.4985241102643833  0.4800209307001030
  0.7477872571498807  0.4999568372384831  0.4374995345977005
  0.8312400949752142  0.5001469481538048  0.4793341301615739
  0.9144417961233458  0.5005908537452382  0.4369207981391752
  0.9979983073083578  0.5000709845757852  0.4787404975162473
  0.9982760510272354  0.4996581924677487  0.5641138101024017
  0.0815276509066948  0.4988114046482267  0.6060655916594359
  0.1647511213115967  0.4988136295636701  0.5638674960538703
  0.2479716240879088  0.4983489184261445  0.6059163555780576
  0.3310895359069179  0.4993355186328164  0.5639584929796233
  0.4143488679538467  0.4995661914979738  0.6062376103784503
  0.4976837695734179  0.4993395209027803  0.5646358945276171
  0.5807828217119901  0.4951413897483691  0.6075269950981338
  0.6646366712382125  0.4952607585797610  0.5651509865380439
  0.7483869742929113  0.4945145824076518  0.6073688438130767
  0.8314767340067448  0.4986380746257019  0.5647153118733677
  0.9150620602252925  0.4990267206767983  0.6064541057191160
  0.0816938736822721  0.4974279560611713  0.6917764202087784
  0.1652281644863598  0.4955966402591433  0.7323866322810961
  0.2480027731111431  0.4963853340772891  0.6915625342759562
  0.3319794134895802  0.4948720689804659  0.7322280477149624
  0.4141954626993483  0.4979741930778410  0.6915124634643102
  0.4983256602233196  0.4936642418870930  0.7325777829856678
  0.5791865322884086  0.4903205485412065  0.6920354204575627
  0.6645359647927331  0.4681056168094233  0.7357548260174754
  0.7503967447896475  0.4893805582688377  0.6923323341547833
  0.8308630198739958  0.4932362348573240  0.7328222312753087
  0.9154223815671467  0.4976471858088994  0.6919863918047667
  0.9980771672645617  0.4971612554070974  0.7325958228092492
  0.9971954689261469  0.4994293322779464  0.2451059376808628
  0.1643647450505784  0.4974720015844345  0.2448627371361929
  0.3315785285183505  0.4975119457083224  0.2450842414234800
  0.6643282607027281  0.5012008854064716  0.2458736963940297
  0.8303823628825874  0.5014899960631104  0.2456173239271917
  0.1654657699789747  0.4933415335300471  0.7971688911946213
  0.3323445840470617  0.4909339830764585  0.7968349103075885
  0.4982305123147119  0.4908090655598782  0.7970503219700833
  0.6648947964559646  0.4955684384096841  0.8157249107871078
  0.8303030021799008  0.4901611271872767  0.7974285220963827
  0.9981098425381862  0.4954386343077070  0.7974069130433747
  0.6033243208270006  0.3748817515126397  0.7412245532789233
  0.4983511016132837  0.4995588930382313  0.2455937482986068
  0.4525470255338451  0.2435149282896331  0.6975366336363190
  0.3485022717503887  0.3427381739912931  0.7072995260251580
  0.4767983804122883  0.3477284068626307  0.6162389413552543
  0.6677016120263313  0.3939575699542170  0.7372538915496492
  0.5018779338608108  0.3519118388067746  0.7602177113982018
  0.4444108790542716  0.3211092626751912  0.6942927743427174
  0.6578633446886650  0.4536848549607804  0.8483725277230627
 
  0.00000000E+00  0.00000000E+00  0.00000000E+00
  0.00000000E+00  0.00000000E+00  0.00000000E+00
  0.00000000E+00  0.00000000E+00  0.00000000E+00
  0.00000000E+00  0.00000000E+00  0.00000000E+00
  0.00000000E+00  0.00000000E+00  0.00000000E+00
  0.00000000E+00  0.00000000E+00  0.00000000E+00
  0.00000000E+00  0.00000000E+00  0.00000000E+00
  0.00000000E+00  0.00000000E+00  0.00000000E+00
  0.00000000E+00  0.00000000E+00  0.00000000E+00
  0.00000000E+00  0.00000000E+00  0.00000000E+00
  0.00000000E+00  0.00000000E+00  0.00000000E+00
  0.00000000E+00  0.00000000E+00  0.00000000E+00
  0.00000000E+00  0.00000000E+00  0.00000000E+00
  0.00000000E+00  0.00000000E+00  0.00000000E+00
  0.00000000E+00  0.00000000E+00  0.00000000E+00
  0.00000000E+00  0.00000000E+00  0.00000000E+00
  0.00000000E+00  0.00000000E+00  0.00000000E+00
  0.00000000E+00  0.00000000E+00  0.00000000E+00
  0.00000000E+00  0.00000000E+00  0.00000000E+00
  0.00000000E+00  0.00000000E+00  0.00000000E+00
  0.00000000E+00  0.00000000E+00  0.00000000E+00
  0.00000000E+00  0.00000000E+00  0.00000000E+00
  0.00000000E+00  0.00000000E+00  0.00000000E+00
  0.00000000E+00  0.00000000E+00  0.00000000E+00
  0.00000000E+00  0.00000000E+00  0.00000000E+00
  0.00000000E+00  0.00000000E+00  0.00000000E+00
  0.00000000E+00  0.00000000E+00  0.00000000E+00
  0.00000000E+00  0.00000000E+00  0.00000000E+00
  0.00000000E+00  0.00000000E+00  0.00000000E+00
  0.00000000E+00  0.00000000E+00  0.00000000E+00
  0.00000000E+00  0.00000000E+00  0.00000000E+00
  0.00000000E+00  0.00000000E+00  0.00000000E+00
  0.00000000E+00  0.00000000E+00  0.00000000E+00
  0.00000000E+00  0.00000000E+00  0.00000000E+00
  0.00000000E+00  0.00000000E+00  0.00000000E+00
  0.00000000E+00  0.00000000E+00  0.00000000E+00
  0.00000000E+00  0.00000000E+00  0.00000000E+00
  0.00000000E+00  0.00000000E+00  0.00000000E+00
  0.00000000E+00  0.00000000E+00  0.00000000E+00
  0.00000000E+00  0.00000000E+00  0.00000000E+00
  0.00000000E+00  0.00000000E+00  0.00000000E+00
  0.00000000E+00  0.00000000E+00  0.00000000E+00
  0.00000000E+00  0.00000000E+00  0.00000000E+00
  0.00000000E+00  0.00000000E+00  0.00000000E+00
  0.00000000E+00  0.00000000E+00  0.00000000E+00
  0.00000000E+00  0.00000000E+00  0.00000000E+00
  0.00000000E+00  0.00000000E+00  0.00000000E+00
  0.00000000E+00  0.00000000E+00  0.00000000E+00
  0.00000000E+00  0.00000000E+00  0.00000000E+00
  0.00000000E+00  0.00000000E+00  0.00000000E+00
  0.00000000E+00  0.00000000E+00  0.00000000E+00
  0.00000000E+00  0.00000000E+00  0.00000000E+00
  0.00000000E+00  0.00000000E+00  0.00000000E+00
  0.00000000E+00  0.00000000E+00  0.00000000E+00
  0.00000000E+00  0.00000000E+00  0.00000000E+00
  0.00000000E+00  0.00000000E+00  0.00000000E+00
  0.00000000E+00  0.00000000E+00  0.00000000E+00
  0.00000000E+00  0.00000000E+00  0.00000000E+00
  0.00000000E+00  0.00000000E+00  0.00000000E+00
  0.00000000E+00  0.00000000E+00  0.00000000E+00
  0.00000000E+00  0.00000000E+00  0.00000000E+00
  0.00000000E+00  0.00000000E+00  0.00000000E+00
  0.00000000E+00  0.00000000E+00  0.00000000E+00
  0.00000000E+00  0.00000000E+00  0.00000000E+00
  0.00000000E+00  0.00000000E+00  0.00000000E+00
  0.00000000E+00  0.00000000E+00  0.00000000E+00
  0.00000000E+00  0.00000000E+00  0.00000000E+00
  0.00000000E+00  0.00000000E+00  0.00000000E+00
