 C  H  O  H  O  S                       
   1.00000000000000     
    14.7630099300000008    0.0053200400000000   -0.0024942400000000
     0.0070480700000000   19.0443932300000007   -0.0030267900000000
    -0.0078782000000000   -0.0046446500000000   16.8297224800000009
   C    H    O    H    O    S 
    48     8     1     4     5     1
Direct
  0.9972934066392948  0.4994263208721803  0.3112206039398950
  0.0808190760201053  0.4979988205308751  0.3517200626828001
  0.1641819323284021  0.4977759168503647  0.3109679202717224
  0.2476073334763316  0.4972590815110888  0.3516903244422799
  0.3310763469758083  0.4978196702214269  0.3111453311183772
  0.4143340602251001  0.4983634424729607  0.3521540175984307
  0.4977516096051519  0.4994883828812203  0.3116056512527241
  0.5809047051063952  0.5001680493381578  0.3526994988201442
  0.6641222347814648  0.5011359766998084  0.3118593427888147
  0.7474197356716261  0.5009333206299118  0.3526889259099681
  0.8305538079621388  0.5011148167229500  0.3116783612664182
  0.9140635505035163  0.4998413811211634  0.3521605512691426
  0.0808971722472645  0.4968944150962786  0.4376759631517846
  0.1643158095315457  0.4959709103454770  0.4797548969737938
  0.2476576492458142  0.4965668211883991  0.4376477431290319
  0.3309318013651608  0.4968991233247594  0.4799349289239121
  0.4143898017344436  0.4980166068215614  0.4380876426918611
  0.4976211132574745  0.4988265003793825  0.4805519686239759
  0.5809179498202247  0.4996812770746987  0.4386246632109131
  0.6641965863985047  0.4997729053470611  0.4811226707611397
  0.7474767359174236  0.5000107197959456  0.4386553473574501
  0.8309030724868394  0.4989348853559118  0.4804817141743019
  0.9141392654990390  0.4986305694325883  0.4381152287064874
  0.9976684501810630  0.4970407253599312  0.4799268874975736
  0.9979076373701831  0.4955407292033102  0.5653057369855459
  0.0812042882016914  0.4940447579053219  0.6072969187792554
  0.1644209014692636  0.4947550957452410  0.5651219812002856
  0.2477005682724905  0.4948730696073017  0.6072293729243736
  0.3308304132252319  0.4965492291854371  0.5652278254081149
  0.4139969208386883  0.4980569222192501  0.6076410074706794
  0.4974878024395668  0.4989108801521219  0.5659234003872728
  0.5805828884546466  0.4994576509649805  0.6088064024093015
  0.6641946493037897  0.4993539643656434  0.5664169991829365
  0.7478662595667377  0.4984384630844221  0.6086221712971781
  0.8310771382956991  0.4977840708786364  0.5659213570102331
  0.9146844309133456  0.4958638176463253  0.6076518797815277
  0.0814355670257086  0.4921431165275174  0.6931042474406414
  0.1648352882393936  0.4913193526789622  0.7338508275266975
  0.2477900566674805  0.4934645376721448  0.6930325247054179
  0.3314816702226935  0.4948711141814946  0.7340028033337130
  0.4135553524285604  0.4982458612640373  0.6930298575802979
  0.4975113372997235  0.4999250329564098  0.7343425283060793
  0.5788590841256842  0.5003240141351379  0.6940739351700405
  0.6640736726342008  0.4999736223939538  0.7405286601520568
  0.7496698478772883  0.4978558750681517  0.6939956959617932
  0.8309649265467859  0.4953465909350948  0.7342930858718799
  0.9152215015430010  0.4941688693781459  0.6933030557577892
  0.9978858799682832  0.4919205397628399  0.7340062797952951
  0.9969928291427534  0.5002297115360859  0.2463998742373268
  0.1641292657485213  0.4982997588029050  0.2461395570854366
  0.3313161377924485  0.4980297577670447  0.2463195117361097
  0.6640688129127431  0.5016277381753590  0.2470323529725956
  0.8301785528679710  0.5018875367928071  0.2468575574783653
  0.1651116181369342  0.4894197289416946  0.7986440872672411
  0.3322970904122743  0.4919375212881726  0.7986149460152653
  0.4980559408243337  0.4997188016848556  0.7989082323776293
  0.6646858995534827  0.5017058226442037  0.8143636979775488
  0.8294396757212421  0.4943023838876985  0.7990469397002007
  0.9978335065000036  0.4903097639854390  0.7988127121816645
  0.6015886811602646  0.3816738075605866  0.8224210468440578
  0.4980471847850595  0.4996808039416641  0.2467806287792068
  0.4174671753368252  0.2490317350231067  0.7603187652943030
  0.4371858749834772  0.3720678018440607  0.8048083413107766
  0.4733077357498199  0.3402428882269887  0.6674081927100416
  0.6285227805763259  0.3531971895112169  0.7797709352629711
  0.5680869212289174  0.2912121230932291  0.7810571456172650
  0.4636868862272927  0.3156953170385753  0.7492542233630677
 
  0.00000000E+00  0.00000000E+00  0.00000000E+00
  0.00000000E+00  0.00000000E+00  0.00000000E+00
  0.00000000E+00  0.00000000E+00  0.00000000E+00
  0.00000000E+00  0.00000000E+00  0.00000000E+00
  0.00000000E+00  0.00000000E+00  0.00000000E+00
  0.00000000E+00  0.00000000E+00  0.00000000E+00
  0.00000000E+00  0.00000000E+00  0.00000000E+00
  0.00000000E+00  0.00000000E+00  0.00000000E+00
  0.00000000E+00  0.00000000E+00  0.00000000E+00
  0.00000000E+00  0.00000000E+00  0.00000000E+00
  0.00000000E+00  0.00000000E+00  0.00000000E+00
  0.00000000E+00  0.00000000E+00  0.00000000E+00
  0.00000000E+00  0.00000000E+00  0.00000000E+00
  0.00000000E+00  0.00000000E+00  0.00000000E+00
  0.00000000E+00  0.00000000E+00  0.00000000E+00
  0.00000000E+00  0.00000000E+00  0.00000000E+00
  0.00000000E+00  0.00000000E+00  0.00000000E+00
  0.00000000E+00  0.00000000E+00  0.00000000E+00
  0.00000000E+00  0.00000000E+00  0.00000000E+00
  0.00000000E+00  0.00000000E+00  0.00000000E+00
  0.00000000E+00  0.00000000E+00  0.00000000E+00
  0.00000000E+00  0.00000000E+00  0.00000000E+00
  0.00000000E+00  0.00000000E+00  0.00000000E+00
  0.00000000E+00  0.00000000E+00  0.00000000E+00
  0.00000000E+00  0.00000000E+00  0.00000000E+00
  0.00000000E+00  0.00000000E+00  0.00000000E+00
  0.00000000E+00  0.00000000E+00  0.00000000E+00
  0.00000000E+00  0.00000000E+00  0.00000000E+00
  0.00000000E+00  0.00000000E+00  0.00000000E+00
  0.00000000E+00  0.00000000E+00  0.00000000E+00
  0.00000000E+00  0.00000000E+00  0.00000000E+00
  0.00000000E+00  0.00000000E+00  0.00000000E+00
  0.00000000E+00  0.00000000E+00  0.00000000E+00
  0.00000000E+00  0.00000000E+00  0.00000000E+00
  0.00000000E+00  0.00000000E+00  0.00000000E+00
  0.00000000E+00  0.00000000E+00  0.00000000E+00
  0.00000000E+00  0.00000000E+00  0.00000000E+00
  0.00000000E+00  0.00000000E+00  0.00000000E+00
  0.00000000E+00  0.00000000E+00  0.00000000E+00
  0.00000000E+00  0.00000000E+00  0.00000000E+00
  0.00000000E+00  0.00000000E+00  0.00000000E+00
  0.00000000E+00  0.00000000E+00  0.00000000E+00
  0.00000000E+00  0.00000000E+00  0.00000000E+00
  0.00000000E+00  0.00000000E+00  0.00000000E+00
  0.00000000E+00  0.00000000E+00  0.00000000E+00
  0.00000000E+00  0.00000000E+00  0.00000000E+00
  0.00000000E+00  0.00000000E+00  0.00000000E+00
  0.00000000E+00  0.00000000E+00  0.00000000E+00
  0.00000000E+00  0.00000000E+00  0.00000000E+00
  0.00000000E+00  0.00000000E+00  0.00000000E+00
  0.00000000E+00  0.00000000E+00  0.00000000E+00
  0.00000000E+00  0.00000000E+00  0.00000000E+00
  0.00000000E+00  0.00000000E+00  0.00000000E+00
  0.00000000E+00  0.00000000E+00  0.00000000E+00
  0.00000000E+00  0.00000000E+00  0.00000000E+00
  0.00000000E+00  0.00000000E+00  0.00000000E+00
  0.00000000E+00  0.00000000E+00  0.00000000E+00
  0.00000000E+00  0.00000000E+00  0.00000000E+00
  0.00000000E+00  0.00000000E+00  0.00000000E+00
  0.00000000E+00  0.00000000E+00  0.00000000E+00
  0.00000000E+00  0.00000000E+00  0.00000000E+00
  0.00000000E+00  0.00000000E+00  0.00000000E+00
  0.00000000E+00  0.00000000E+00  0.00000000E+00
  0.00000000E+00  0.00000000E+00  0.00000000E+00
  0.00000000E+00  0.00000000E+00  0.00000000E+00
  0.00000000E+00  0.00000000E+00  0.00000000E+00
  0.00000000E+00  0.00000000E+00  0.00000000E+00
