 C  H  O  H                             
   1.00000000000000     
    14.7630099300000008    0.0053200400000000   -0.0024942400000000
     0.0070480700000000   19.0443932300000007   -0.0030267900000000
    -0.0078782000000000   -0.0046446500000000   16.8297224800000009
   C    H    O    H 
    48     8     1     4
Direct
  0.9975940144731370  0.4997678807147887  0.3116481131205726
  0.0809815398182798  0.4984555488518407  0.3522420326621560
  0.1642948336642344  0.4979743258161675  0.3116208141948317
  0.2476612436126692  0.4976056980528340  0.3523211079307303
  0.3310034053701290  0.4982045204998431  0.3117810433496624
  0.4143032168641824  0.4989052360554130  0.3524893905796490
  0.4976156900846310  0.5001996109580361  0.3118541549062560
  0.5809837801529730  0.5010578830729797  0.3524203998463848
  0.6642280844678662  0.5019865394550500  0.3116953804138846
  0.7476045070794297  0.5019975919646731  0.3523530166166608
  0.8309081539488089  0.5018343020980992  0.3117347858828179
  0.9142874571236250  0.5006835339004665  0.3523305218622504
  0.0810603003335080  0.4978121854875466  0.4382729250648777
  0.1643903655826746  0.4967333236398235  0.4804014595935677
  0.2477024700541996  0.4970097929966147  0.4383312071390553
  0.3310437550331171  0.4970845776441971  0.4804726700278459
  0.4143680441978211  0.4983706104825414  0.4384967073122769
  0.4977930356766677  0.4990739000808262  0.4805938385026480
  0.5810107401527094  0.5004758201758759  0.4384601093851718
  0.6643917657737168  0.5007013335663233  0.4805848784125215
  0.7476992118055467  0.5014170514827041  0.4383705911638077
  0.8310367023610092  0.5006317097645220  0.4804311394148048
  0.9143849813336313  0.5000859690846121  0.4383291120257725
  0.9977618477391976  0.4984912796546685  0.4803589275848222
  0.9978164686775740  0.4973138963033714  0.5658807999758738
  0.0811119461851078  0.4956681117508837  0.6080535387110674
  0.1644203765747320  0.4957553793905606  0.5659547105629843
  0.2477606410049794  0.4951855535619140  0.6081500648519688
  0.3310669667299679  0.4961078649624965  0.5660139132748638
  0.4144464506112043  0.4961827281489516  0.6081174689998223
  0.4978909582030140  0.4978101527919537  0.5661975221497294
  0.5813707993034563  0.4975070676762626  0.6082698561249777
  0.6645166594039952  0.4991622349552569  0.5660091064791762
  0.7478136885395499  0.4985544976085625  0.6080857755866200
  0.8311193325954364  0.4993229064622391  0.5659978049727344
  0.9145280982126002  0.4975307058335924  0.6079550953550817
  0.0812533098974576  0.4940383451834917  0.6940692926705522
  0.1644939307365248  0.4930380135044959  0.7347664974690890
  0.2477402537240290  0.4940825921757597  0.6941762720144112
  0.3311369019028182  0.4942124785059128  0.7347620727156393
  0.4141330939431266  0.4950578124178007  0.6940371802937720
  0.4976958647906323  0.4946380192071324  0.7346714911761758
  0.5808023366968613  0.4946012637894637  0.6941497486058750
  0.6650315569421442  0.4910512204356677  0.7345860777347306
  0.7488068221088178  0.4949026720693406  0.6937908111128601
  0.8315983533712923  0.4936726229615425  0.7347150350740389
  0.9148118652805765  0.4951927780007235  0.6938102514851658
  0.9978999230182108  0.4936012494143279  0.7346201229933231
  0.9975055045203899  0.5001395388253522  0.2467964668158963
  0.1642946762533499  0.4983639001013570  0.2467719550176725
  0.3310479617821976  0.4985019636859378  0.2469293470567714
  0.6641316384393621  0.5021930627622331  0.2468492504645518
  0.8308460140651136  0.5021490070416957  0.2468812900950485
  0.1644550846547799  0.4917514548469086  0.7995957091494049
  0.3311707369412036  0.4934459975375250  0.7996148967088879
  0.4947478564721407  0.4959285958370933  0.7995517607880288
  0.6691337443202521  0.4829096909672631  0.8152996540591015
  0.8317220274507885  0.4911931311938514  0.7993208454156915
  0.9977116664456199  0.4918742160748474  0.7994345678436777
  0.4975202966083832  0.5004605827923955  0.2469980399755214
  0.6085172906167527  0.4719804867805918  0.8344593525630021
 
  0.00000000E+00  0.00000000E+00  0.00000000E+00
  0.00000000E+00  0.00000000E+00  0.00000000E+00
  0.00000000E+00  0.00000000E+00  0.00000000E+00
  0.00000000E+00  0.00000000E+00  0.00000000E+00
  0.00000000E+00  0.00000000E+00  0.00000000E+00
  0.00000000E+00  0.00000000E+00  0.00000000E+00
  0.00000000E+00  0.00000000E+00  0.00000000E+00
  0.00000000E+00  0.00000000E+00  0.00000000E+00
  0.00000000E+00  0.00000000E+00  0.00000000E+00
  0.00000000E+00  0.00000000E+00  0.00000000E+00
  0.00000000E+00  0.00000000E+00  0.00000000E+00
  0.00000000E+00  0.00000000E+00  0.00000000E+00
  0.00000000E+00  0.00000000E+00  0.00000000E+00
  0.00000000E+00  0.00000000E+00  0.00000000E+00
  0.00000000E+00  0.00000000E+00  0.00000000E+00
  0.00000000E+00  0.00000000E+00  0.00000000E+00
  0.00000000E+00  0.00000000E+00  0.00000000E+00
  0.00000000E+00  0.00000000E+00  0.00000000E+00
  0.00000000E+00  0.00000000E+00  0.00000000E+00
  0.00000000E+00  0.00000000E+00  0.00000000E+00
  0.00000000E+00  0.00000000E+00  0.00000000E+00
  0.00000000E+00  0.00000000E+00  0.00000000E+00
  0.00000000E+00  0.00000000E+00  0.00000000E+00
  0.00000000E+00  0.00000000E+00  0.00000000E+00
  0.00000000E+00  0.00000000E+00  0.00000000E+00
  0.00000000E+00  0.00000000E+00  0.00000000E+00
  0.00000000E+00  0.00000000E+00  0.00000000E+00
  0.00000000E+00  0.00000000E+00  0.00000000E+00
  0.00000000E+00  0.00000000E+00  0.00000000E+00
  0.00000000E+00  0.00000000E+00  0.00000000E+00
  0.00000000E+00  0.00000000E+00  0.00000000E+00
  0.00000000E+00  0.00000000E+00  0.00000000E+00
  0.00000000E+00  0.00000000E+00  0.00000000E+00
  0.00000000E+00  0.00000000E+00  0.00000000E+00
  0.00000000E+00  0.00000000E+00  0.00000000E+00
  0.00000000E+00  0.00000000E+00  0.00000000E+00
  0.00000000E+00  0.00000000E+00  0.00000000E+00
  0.00000000E+00  0.00000000E+00  0.00000000E+00
  0.00000000E+00  0.00000000E+00  0.00000000E+00
  0.00000000E+00  0.00000000E+00  0.00000000E+00
  0.00000000E+00  0.00000000E+00  0.00000000E+00
  0.00000000E+00  0.00000000E+00  0.00000000E+00
  0.00000000E+00  0.00000000E+00  0.00000000E+00
  0.00000000E+00  0.00000000E+00  0.00000000E+00
  0.00000000E+00  0.00000000E+00  0.00000000E+00
  0.00000000E+00  0.00000000E+00  0.00000000E+00
  0.00000000E+00  0.00000000E+00  0.00000000E+00
  0.00000000E+00  0.00000000E+00  0.00000000E+00
  0.00000000E+00  0.00000000E+00  0.00000000E+00
  0.00000000E+00  0.00000000E+00  0.00000000E+00
  0.00000000E+00  0.00000000E+00  0.00000000E+00
  0.00000000E+00  0.00000000E+00  0.00000000E+00
  0.00000000E+00  0.00000000E+00  0.00000000E+00
  0.00000000E+00  0.00000000E+00  0.00000000E+00
  0.00000000E+00  0.00000000E+00  0.00000000E+00
  0.00000000E+00  0.00000000E+00  0.00000000E+00
  0.00000000E+00  0.00000000E+00  0.00000000E+00
  0.00000000E+00  0.00000000E+00  0.00000000E+00
  0.00000000E+00  0.00000000E+00  0.00000000E+00
  0.00000000E+00  0.00000000E+00  0.00000000E+00
  0.00000000E+00  0.00000000E+00  0.00000000E+00
