 C  H  C  H  O  H  O  H                 
   1.00000000000000     
    14.7630099300000008    0.0053200400000000   -0.0024942400000000
     0.0070480700000000   19.0443932300000007   -0.0030267900000000
    -0.0078782000000000   -0.0046446500000000   16.8297224800000009
   C    H    C    H    O    H    O    H 
    48     8     1     3     2     1     2     2
Direct
  1.0002159871948821  0.4976169752485027  0.3131181166078628
  0.0838400495228075  0.4972664833352018  0.3535657838558611
  0.1672513602758261  0.4957667427902075  0.3128968554689930
  0.2506963691924249  0.4964915468448717  0.3536635498646862
  0.3342581626288051  0.4965762726077452  0.3132688615782716
  0.4174678510101699  0.4982975096958856  0.3543341349192550
  0.5009365011794210  0.4989755903787949  0.3139153526403323
  0.5840037966453873  0.5005686809780444  0.3550961887164221
  0.6671549185515111  0.5006020643388376  0.3141861558116026
  0.7504292225265082  0.5014323421581796  0.3549935061923059
  0.8334363870445719  0.5000862977483006  0.3137681487008568
  0.9170421446132825  0.4999260771264773  0.3541185130375281
  0.0839885745784144  0.4990107550872525  0.4395169943148430
  0.1673775803843917  0.4986913939087151  0.4816311538253842
  0.2507272411768834  0.4977546471614565  0.4396234451213355
  0.3339757116635959  0.4987324318367241  0.4819795925172395
  0.4174940982539684  0.4993085858962141  0.4402996167990240
  0.5007136182944991  0.5007610410966788  0.4828835368076048
  0.5840650967348719  0.5015248902935089  0.4410656801031123
  0.6673602616539916  0.5027800578593256  0.4836574346231099
  0.7505517257329211  0.5029456350968587  0.4409537422328773
  0.8340831587756392  0.5037028900553496  0.4826214203225490
  0.9172225759382475  0.5019548862188984  0.4400549000252211
  1.0008161627023335  0.5014615423745380  0.4817702659900744
  0.0011616429000742  0.5035216536750424  0.5670880068257015
  0.0843627372994240  0.5023637958523217  0.6090865171604264
  0.1674642111046551  0.5000152534054029  0.5670150442598384
  0.2506608202688312  0.4997365401311138  0.6092206889012414
  0.3338445766858642  0.4994883538010326  0.5673336398145088
  0.4170463351134198  0.5001691074123110  0.6097607580703022
  0.5005965063632349  0.5007181335685404  0.5683157505483311
  0.5837985124273934  0.5006642708427254  0.6115058415914485
  0.6674947526134403  0.5025883734371646  0.5690271285025458
  0.7514204106017951  0.5042189088477759  0.6112123211605328
  0.8344681617267924  0.5052770978071005  0.5679862345545316
  0.9180882969646061  0.5060596488033117  0.6094069885413960
  0.0844965179831008  0.5037296807566850  0.6948744172680968
  0.1675630934074037  0.5017355124321045  0.7357419439055952
  0.2506623414807438  0.5003236518133011  0.6950180231413254
  0.3343239997908098  0.5003007513646203  0.7359885905487262
  0.4167934370316333  0.5002889340136217  0.6953834146840453
  0.5011862805156836  0.4987503130535533  0.7364829536131711
  0.5824416469959760  0.4976111350209624  0.6966477875564316
  0.6687548003949200  0.4842194820358658  0.7425370674895218
  0.7532140164680963  0.5031220590321416  0.6962949392539818
  0.8343726518386769  0.5076650846957202  0.7361218537174142
  0.9185514534741746  0.5083334316704857  0.6949807351311282
  0.0009909487852610  0.5072595568118109  0.7357073646730166
  0.9997420116914981  0.4961094732829291  0.2483030642917900
  0.1672408558415646  0.4945805748683756  0.2480700931398949
  0.3346553627006032  0.4956221617252306  0.2484418988316641
  0.6670368774511246  0.4994828439362912  0.2493657061538943
  0.8327553099945151  0.4986292186367102  0.2489577900109031
  0.1675071726900352  0.5018192795614179  0.8005876144090753
  0.3343481230658853  0.5003122803743201  0.8008233042575541
  0.5005808260695459  0.4970923893662637  0.8012203459619797
  0.6681222223465944  0.5226243153320193  0.8259776677202567
  0.8351465615218344  0.5071388124877503  0.8008863683918666
  0.0009073386136809  0.5082512791781459  0.8005324051055556
  0.5014144089248137  0.4980811279788083  0.2490923223860071
  0.6815246977395590  0.4745580781743289  0.8816957359028952
  0.6576748813836115  0.5860823207131260  0.8357413938392392
  0.6834295910649980  0.4289039163888655  0.8398854000086942
  0.6757216972294210  0.4122961260079073  0.7600276013131391
  0.6567589091260566  0.2657843061331694  0.7619832320664017
  0.6612667610513133  0.3169568994825642  0.7542480580112851
  0.6799775335804933  0.2460311274573088  0.7128825889687415
 
  0.00000000E+00  0.00000000E+00  0.00000000E+00
  0.00000000E+00  0.00000000E+00  0.00000000E+00
  0.00000000E+00  0.00000000E+00  0.00000000E+00
  0.00000000E+00  0.00000000E+00  0.00000000E+00
  0.00000000E+00  0.00000000E+00  0.00000000E+00
  0.00000000E+00  0.00000000E+00  0.00000000E+00
  0.00000000E+00  0.00000000E+00  0.00000000E+00
  0.00000000E+00  0.00000000E+00  0.00000000E+00
  0.00000000E+00  0.00000000E+00  0.00000000E+00
  0.00000000E+00  0.00000000E+00  0.00000000E+00
  0.00000000E+00  0.00000000E+00  0.00000000E+00
  0.00000000E+00  0.00000000E+00  0.00000000E+00
  0.00000000E+00  0.00000000E+00  0.00000000E+00
  0.00000000E+00  0.00000000E+00  0.00000000E+00
  0.00000000E+00  0.00000000E+00  0.00000000E+00
  0.00000000E+00  0.00000000E+00  0.00000000E+00
  0.00000000E+00  0.00000000E+00  0.00000000E+00
  0.00000000E+00  0.00000000E+00  0.00000000E+00
  0.00000000E+00  0.00000000E+00  0.00000000E+00
  0.00000000E+00  0.00000000E+00  0.00000000E+00
  0.00000000E+00  0.00000000E+00  0.00000000E+00
  0.00000000E+00  0.00000000E+00  0.00000000E+00
  0.00000000E+00  0.00000000E+00  0.00000000E+00
  0.00000000E+00  0.00000000E+00  0.00000000E+00
  0.00000000E+00  0.00000000E+00  0.00000000E+00
  0.00000000E+00  0.00000000E+00  0.00000000E+00
  0.00000000E+00  0.00000000E+00  0.00000000E+00
  0.00000000E+00  0.00000000E+00  0.00000000E+00
  0.00000000E+00  0.00000000E+00  0.00000000E+00
  0.00000000E+00  0.00000000E+00  0.00000000E+00
  0.00000000E+00  0.00000000E+00  0.00000000E+00
  0.00000000E+00  0.00000000E+00  0.00000000E+00
  0.00000000E+00  0.00000000E+00  0.00000000E+00
  0.00000000E+00  0.00000000E+00  0.00000000E+00
  0.00000000E+00  0.00000000E+00  0.00000000E+00
  0.00000000E+00  0.00000000E+00  0.00000000E+00
  0.00000000E+00  0.00000000E+00  0.00000000E+00
  0.00000000E+00  0.00000000E+00  0.00000000E+00
  0.00000000E+00  0.00000000E+00  0.00000000E+00
  0.00000000E+00  0.00000000E+00  0.00000000E+00
  0.00000000E+00  0.00000000E+00  0.00000000E+00
  0.00000000E+00  0.00000000E+00  0.00000000E+00
  0.00000000E+00  0.00000000E+00  0.00000000E+00
  0.00000000E+00  0.00000000E+00  0.00000000E+00
  0.00000000E+00  0.00000000E+00  0.00000000E+00
  0.00000000E+00  0.00000000E+00  0.00000000E+00
  0.00000000E+00  0.00000000E+00  0.00000000E+00
  0.00000000E+00  0.00000000E+00  0.00000000E+00
  0.00000000E+00  0.00000000E+00  0.00000000E+00
  0.00000000E+00  0.00000000E+00  0.00000000E+00
  0.00000000E+00  0.00000000E+00  0.00000000E+00
  0.00000000E+00  0.00000000E+00  0.00000000E+00
  0.00000000E+00  0.00000000E+00  0.00000000E+00
  0.00000000E+00  0.00000000E+00  0.00000000E+00
  0.00000000E+00  0.00000000E+00  0.00000000E+00
  0.00000000E+00  0.00000000E+00  0.00000000E+00
  0.00000000E+00  0.00000000E+00  0.00000000E+00
  0.00000000E+00  0.00000000E+00  0.00000000E+00
  0.00000000E+00  0.00000000E+00  0.00000000E+00
  0.00000000E+00  0.00000000E+00  0.00000000E+00
  0.00000000E+00  0.00000000E+00  0.00000000E+00
  0.00000000E+00  0.00000000E+00  0.00000000E+00
  0.00000000E+00  0.00000000E+00  0.00000000E+00
  0.00000000E+00  0.00000000E+00  0.00000000E+00
  0.00000000E+00  0.00000000E+00  0.00000000E+00
  0.00000000E+00  0.00000000E+00  0.00000000E+00
  0.00000000E+00  0.00000000E+00  0.00000000E+00
