 C  H  O  H  O                          
   1.00000000000000     
    14.7630099300000008    0.0053200400000000   -0.0024942400000000
     0.0070480700000000   19.0443932300000007   -0.0030267900000000
    -0.0078782000000000   -0.0046446500000000   16.8297224800000009
   C    H    O    H    O 
    48     8     1     4     2
Direct
  0.9976141190363582  0.5009672770377809  0.3112271747211672
  0.0811375144543744  0.5004906890156645  0.3517353162931139
  0.1644731518745317  0.5008122871873063  0.3110850361924078
  0.2478504104429495  0.5000436192616975  0.3517639700667530
  0.3313196880880671  0.5003070301498600  0.3112902057282765
  0.4145716712280733  0.4991951573124179  0.3521248949413510
  0.4980006299990337  0.4997809314589456  0.3116819230661936
  0.5812085953075663  0.4985851746345167  0.3525344223623946
  0.6644479546404155  0.4997811279974252  0.3118414282117277
  0.7477679877790900  0.4991444768599355  0.3525001391487898
  0.8308988332353202  0.5005225196281011  0.3116085204052094
  0.9144166775655824  0.5001671793513814  0.3520485582043737
  0.0812334630422242  0.4996163401548539  0.4377124844018311
  0.1646002978557338  0.4990626382357253  0.4798191151772339
  0.2479060224505640  0.4989852908380630  0.4377414338287439
  0.3312335127534395  0.4976964791382217  0.4799577230759539
  0.4146119864307023  0.4974972913044546  0.4381030820859110
  0.4979578076990938  0.4957390829655531  0.4803978344017532
  0.5812522289799493  0.4962215192642717  0.4384982885663577
  0.6646249078520183  0.4950933097554340  0.4808339298448356
  0.7478854602910024  0.4970507105721955  0.4384689866104577
  0.8312628385570450  0.4972850858864488  0.4803405079653318
  0.9145284154112381  0.4988940041272206  0.4380321865946120
  0.9979622039658511  0.4990107931470624  0.4799195892118676
  0.9981487325652219  0.4983353334722331  0.5653546845999875
  0.0814611059487478  0.4983883225498273  0.6074293645963972
  0.1646690864949718  0.4984592928765564  0.5652780065357174
  0.2479514942742193  0.4975850321373571  0.6074497681244528
  0.3311889579118535  0.4967776864305021  0.5653908604958260
  0.4144509837951086  0.4949476243839485  0.6076288674826887
  0.4979224037463117  0.4938495696758169  0.5658765039702529
  0.5811738306507425  0.4912104541714530  0.6082805446367500
  0.6647311128796375  0.4923720202301251  0.5661467507417223
  0.7483695820115492  0.4929826949859596  0.6082231270191248
  0.8314816983952614  0.4959253057332291  0.5657981959850523
  0.9149891051348727  0.4970571656304996  0.6076101682436341
  0.0816259517436497  0.4978255524414075  0.6933200335318140
  0.1648050196282693  0.4974967276265729  0.7340645772872398
  0.2479412877568051  0.4972219622454457  0.6933444550058219
  0.3315829509035462  0.4962293161688320  0.7340790736165516
  0.4141224549058076  0.4947169605119952  0.6933542804501212
  0.4983172618052597  0.4924351497434239  0.7342419135718021
  0.5800064247627372  0.4895228445228301  0.6938689221464699
  0.6654194676448753  0.4802119932641075  0.7350231343089060
  0.7500628907600714  0.4909205044501762  0.6937091957965281
  0.8315894157039621  0.4930943213724507  0.7344442599217562
  0.9154409229763140  0.4962476442242155  0.6933414109216858
  0.9980651684587448  0.4970446079548926  0.7340669261902598
  0.9973588505432942  0.5017663543750608  0.2463816580045152
  0.1644356272063448  0.5015191017351939  0.2462347285984973
  0.3314942391541682  0.5013568292033058  0.2464480455604736
  0.6643609774144829  0.5015040884233356  0.2470208816304219
  0.8305452245366307  0.5018350113707127  0.2467750532437373
  0.1647996178466939  0.4970093185661232  0.7989078251586997
  0.3315553624999443  0.4959751557546673  0.7989328257449245
  0.4964046636357022  0.4936176124502165  0.7990360618019494
  0.6696831953046936  0.4838698215446761  0.8160252413018977
  0.8316617776392560  0.4910054265244048  0.7990536286469072
  0.9980254180925155  0.4962542826294728  0.7988997749491367
  0.4982111491484036  0.5013849296122288  0.2468559206479789
  0.6170139414905434  0.4595963111351883  0.8375542091204505
  0.6660252986119609  0.3736895256080395  0.7298411005854522
  0.6610249748516054  0.3432549454775972  0.6617953089964609
 
  0.00000000E+00  0.00000000E+00  0.00000000E+00
  0.00000000E+00  0.00000000E+00  0.00000000E+00
  0.00000000E+00  0.00000000E+00  0.00000000E+00
  0.00000000E+00  0.00000000E+00  0.00000000E+00
  0.00000000E+00  0.00000000E+00  0.00000000E+00
  0.00000000E+00  0.00000000E+00  0.00000000E+00
  0.00000000E+00  0.00000000E+00  0.00000000E+00
  0.00000000E+00  0.00000000E+00  0.00000000E+00
  0.00000000E+00  0.00000000E+00  0.00000000E+00
  0.00000000E+00  0.00000000E+00  0.00000000E+00
  0.00000000E+00  0.00000000E+00  0.00000000E+00
  0.00000000E+00  0.00000000E+00  0.00000000E+00
  0.00000000E+00  0.00000000E+00  0.00000000E+00
  0.00000000E+00  0.00000000E+00  0.00000000E+00
  0.00000000E+00  0.00000000E+00  0.00000000E+00
  0.00000000E+00  0.00000000E+00  0.00000000E+00
  0.00000000E+00  0.00000000E+00  0.00000000E+00
  0.00000000E+00  0.00000000E+00  0.00000000E+00
  0.00000000E+00  0.00000000E+00  0.00000000E+00
  0.00000000E+00  0.00000000E+00  0.00000000E+00
  0.00000000E+00  0.00000000E+00  0.00000000E+00
  0.00000000E+00  0.00000000E+00  0.00000000E+00
  0.00000000E+00  0.00000000E+00  0.00000000E+00
  0.00000000E+00  0.00000000E+00  0.00000000E+00
  0.00000000E+00  0.00000000E+00  0.00000000E+00
  0.00000000E+00  0.00000000E+00  0.00000000E+00
  0.00000000E+00  0.00000000E+00  0.00000000E+00
  0.00000000E+00  0.00000000E+00  0.00000000E+00
  0.00000000E+00  0.00000000E+00  0.00000000E+00
  0.00000000E+00  0.00000000E+00  0.00000000E+00
  0.00000000E+00  0.00000000E+00  0.00000000E+00
  0.00000000E+00  0.00000000E+00  0.00000000E+00
  0.00000000E+00  0.00000000E+00  0.00000000E+00
  0.00000000E+00  0.00000000E+00  0.00000000E+00
  0.00000000E+00  0.00000000E+00  0.00000000E+00
  0.00000000E+00  0.00000000E+00  0.00000000E+00
  0.00000000E+00  0.00000000E+00  0.00000000E+00
  0.00000000E+00  0.00000000E+00  0.00000000E+00
  0.00000000E+00  0.00000000E+00  0.00000000E+00
  0.00000000E+00  0.00000000E+00  0.00000000E+00
  0.00000000E+00  0.00000000E+00  0.00000000E+00
  0.00000000E+00  0.00000000E+00  0.00000000E+00
  0.00000000E+00  0.00000000E+00  0.00000000E+00
  0.00000000E+00  0.00000000E+00  0.00000000E+00
  0.00000000E+00  0.00000000E+00  0.00000000E+00
  0.00000000E+00  0.00000000E+00  0.00000000E+00
  0.00000000E+00  0.00000000E+00  0.00000000E+00
  0.00000000E+00  0.00000000E+00  0.00000000E+00
  0.00000000E+00  0.00000000E+00  0.00000000E+00
  0.00000000E+00  0.00000000E+00  0.00000000E+00
  0.00000000E+00  0.00000000E+00  0.00000000E+00
  0.00000000E+00  0.00000000E+00  0.00000000E+00
  0.00000000E+00  0.00000000E+00  0.00000000E+00
  0.00000000E+00  0.00000000E+00  0.00000000E+00
  0.00000000E+00  0.00000000E+00  0.00000000E+00
  0.00000000E+00  0.00000000E+00  0.00000000E+00
  0.00000000E+00  0.00000000E+00  0.00000000E+00
  0.00000000E+00  0.00000000E+00  0.00000000E+00
  0.00000000E+00  0.00000000E+00  0.00000000E+00
  0.00000000E+00  0.00000000E+00  0.00000000E+00
  0.00000000E+00  0.00000000E+00  0.00000000E+00
  0.00000000E+00  0.00000000E+00  0.00000000E+00
  0.00000000E+00  0.00000000E+00  0.00000000E+00
