 C  H                                   
   1.00000000000000     
    14.7630099300000008    0.0053200400000000   -0.0024942400000000
     0.0070480700000000   19.0443932300000007   -0.0030267900000000
    -0.0078782000000000   -0.0046446500000000   16.8297224800000009
   C    H 
    48    12
Direct
  0.9998504908113721  0.5000516170894744  0.3119741480966767
  0.0831742771999740  0.4977602084448475  0.3525954293834840
  0.1664590084739070  0.4987006779540571  0.3119529839590460
  0.2498299118844785  0.4971927511227288  0.3525403803493390
  0.3330710146854991  0.5007759818127613  0.3119953820015098
  0.4164799784756587  0.4997611552290102  0.3525352844250563
  0.4997090791986601  0.5041778840473949  0.3120483211200692
  0.5831633678582120  0.5025514750879847  0.3525272830818409
  0.6664838773774152  0.5048705677858620  0.3119744725289121
  0.7498832464191909  0.5028121677023941  0.3525438579971263
  0.8332258455158916  0.5028209598715002  0.3119568029034017
  0.9165481180640475  0.5005854015938741  0.3526075962433035
  0.0832328191986073  0.4951591575982622  0.4385861059259261
  0.1665878888266477  0.4921066130248687  0.4805767898104931
  0.2499044605247402  0.4929142281173252  0.4384456555540401
  0.3333180821995728  0.4913354857860938  0.4804319952600619
  0.4166108543557380  0.4945602538107211  0.4383842242201442
  0.5000025405506757  0.4947285448123083  0.4804425368979554
  0.5832638516835401  0.4983774254896929  0.4384457527499134
  0.6666359449562538  0.4988487876196283  0.4805628695852456
  0.7499474808312969  0.5005809187122101  0.4385487474999287
  0.8333109477592574  0.4996260649149226  0.4806899154848782
  0.9166246730910811  0.4990042042362851  0.4386277694297299
  0.9999468485919197  0.4962504959739340  0.4807141475118723
  0.9999933218885393  0.4946426936764718  0.5662895892492622
  0.0833140147592606  0.4907440221073129  0.6082910114107546
  0.1666281028678256  0.4894162138304722  0.5661173456487575
  0.2500545846633214  0.4871195754783271  0.6080886270642911
  0.3333995721911528  0.4884707085569542  0.5659634606064525
  0.4167882020723772  0.4896823249826452  0.6080265576051845
  0.5000703585740209  0.4928632986235358  0.5659888222978805
  0.5833354903111470  0.4960298865918433  0.6081170314147981
  0.6666519406424120  0.4981975985274490  0.5661202314125908
  0.7499885165216162  0.4997474642654007  0.6082863090677961
  0.8333541143223442  0.4990840663418178  0.5662712819773931
  0.9167039234164926  0.4970170385956638  0.6084033587630046
  0.0833121086171329  0.4885952900018843  0.6943225833686613
  0.1667410550761143  0.4847526169548559  0.7347731907892624
  0.2501251920496607  0.4850904576046992  0.6941137352054189
  0.3335949549377092  0.4859110421846738  0.7346809227340757
  0.4168183300093777  0.4898418994612337  0.6940582852913961
  0.4999207550322968  0.4955142385998617  0.7346633787095043
  0.5832353933537197  0.4983361638161654  0.6940960648830000
  0.6664700298018137  0.5027562151584403  0.7347360485879136
  0.7499699034560158  0.5015605894653765  0.6943051051364165
  0.8333752720273742  0.5004713034459096  0.7349948093685161
  0.9167121456280232  0.4965626431014158  0.6944655236074562
  1.0000050773170042  0.4917010259207061  0.7349959026164649
  0.9998617327458142  0.5016487018272507  0.2471575024405054
  0.1663943474828362  0.5014412832987868  0.2471844000597981
  0.3328875602996787  0.5051808851497736  0.2473394168893689
  0.6664478886370978  0.5078172757398225  0.2472083729892796
  0.8332701068208694  0.5040835364057710  0.2471237615828879
  0.1669145955766540  0.4830513791631389  0.7996036941637512
  0.3338641417499008  0.4849195775898224  0.7995197243007810
  0.4997414188898321  0.4982292405438649  0.7994394475742543
  0.6661552878852873  0.5058834084726894  0.7994854629238697
  0.8332391083651495  0.5012354804954059  0.7998441378665402
  0.9999974801240722  0.4903401101530154  0.7998331788863231
  0.4995003052574237  0.5091279430739504  0.2474399501095795
 
  0.00000000E+00  0.00000000E+00  0.00000000E+00
  0.00000000E+00  0.00000000E+00  0.00000000E+00
  0.00000000E+00  0.00000000E+00  0.00000000E+00
  0.00000000E+00  0.00000000E+00  0.00000000E+00
  0.00000000E+00  0.00000000E+00  0.00000000E+00
  0.00000000E+00  0.00000000E+00  0.00000000E+00
  0.00000000E+00  0.00000000E+00  0.00000000E+00
  0.00000000E+00  0.00000000E+00  0.00000000E+00
  0.00000000E+00  0.00000000E+00  0.00000000E+00
  0.00000000E+00  0.00000000E+00  0.00000000E+00
  0.00000000E+00  0.00000000E+00  0.00000000E+00
  0.00000000E+00  0.00000000E+00  0.00000000E+00
  0.00000000E+00  0.00000000E+00  0.00000000E+00
  0.00000000E+00  0.00000000E+00  0.00000000E+00
  0.00000000E+00  0.00000000E+00  0.00000000E+00
  0.00000000E+00  0.00000000E+00  0.00000000E+00
  0.00000000E+00  0.00000000E+00  0.00000000E+00
  0.00000000E+00  0.00000000E+00  0.00000000E+00
  0.00000000E+00  0.00000000E+00  0.00000000E+00
  0.00000000E+00  0.00000000E+00  0.00000000E+00
  0.00000000E+00  0.00000000E+00  0.00000000E+00
  0.00000000E+00  0.00000000E+00  0.00000000E+00
  0.00000000E+00  0.00000000E+00  0.00000000E+00
  0.00000000E+00  0.00000000E+00  0.00000000E+00
  0.00000000E+00  0.00000000E+00  0.00000000E+00
  0.00000000E+00  0.00000000E+00  0.00000000E+00
  0.00000000E+00  0.00000000E+00  0.00000000E+00
  0.00000000E+00  0.00000000E+00  0.00000000E+00
  0.00000000E+00  0.00000000E+00  0.00000000E+00
  0.00000000E+00  0.00000000E+00  0.00000000E+00
  0.00000000E+00  0.00000000E+00  0.00000000E+00
  0.00000000E+00  0.00000000E+00  0.00000000E+00
  0.00000000E+00  0.00000000E+00  0.00000000E+00
  0.00000000E+00  0.00000000E+00  0.00000000E+00
  0.00000000E+00  0.00000000E+00  0.00000000E+00
  0.00000000E+00  0.00000000E+00  0.00000000E+00
  0.00000000E+00  0.00000000E+00  0.00000000E+00
  0.00000000E+00  0.00000000E+00  0.00000000E+00
  0.00000000E+00  0.00000000E+00  0.00000000E+00
  0.00000000E+00  0.00000000E+00  0.00000000E+00
  0.00000000E+00  0.00000000E+00  0.00000000E+00
  0.00000000E+00  0.00000000E+00  0.00000000E+00
  0.00000000E+00  0.00000000E+00  0.00000000E+00
  0.00000000E+00  0.00000000E+00  0.00000000E+00
  0.00000000E+00  0.00000000E+00  0.00000000E+00
  0.00000000E+00  0.00000000E+00  0.00000000E+00
  0.00000000E+00  0.00000000E+00  0.00000000E+00
  0.00000000E+00  0.00000000E+00  0.00000000E+00
  0.00000000E+00  0.00000000E+00  0.00000000E+00
  0.00000000E+00  0.00000000E+00  0.00000000E+00
  0.00000000E+00  0.00000000E+00  0.00000000E+00
  0.00000000E+00  0.00000000E+00  0.00000000E+00
  0.00000000E+00  0.00000000E+00  0.00000000E+00
  0.00000000E+00  0.00000000E+00  0.00000000E+00
  0.00000000E+00  0.00000000E+00  0.00000000E+00
  0.00000000E+00  0.00000000E+00  0.00000000E+00
  0.00000000E+00  0.00000000E+00  0.00000000E+00
  0.00000000E+00  0.00000000E+00  0.00000000E+00
  0.00000000E+00  0.00000000E+00  0.00000000E+00
  0.00000000E+00  0.00000000E+00  0.00000000E+00
