 C  H  O  H                             
   1.00000000000000     
    14.7630099300000008    0.0053200400000000   -0.0024942400000000
     0.0070480700000000   19.0443932300000007   -0.0030267900000000
    -0.0078782000000000   -0.0046446500000000   16.8297224800000009
   C    H    O    H 
    48    12     2     2
Direct
  1.0019562442975851  0.5025028635647236  0.3121659070934932
  0.0854999052356748  0.5008921155140504  0.3526342639108290
  0.1688477860454669  0.5007312145497982  0.3119329739136913
  0.2522585655060119  0.4990424517056404  0.3526041371460173
  0.3357398576959296  0.4995522193765888  0.3121266435132924
  0.4189949026103792  0.4982569278176274  0.3530185287853327
  0.5024682169472634  0.4998809996232956  0.3126382589847698
  0.5856232762046153  0.4989374864670162  0.3536396197848220
  0.6688312851048608  0.5013892619805962  0.3129376148397344
  0.7521403013224340  0.5008669892869793  0.3536941660539264
  0.8352048518492460  0.5028946143612740  0.3126993060738826
  0.9187710339159048  0.5020168564200846  0.3530872672736336
  0.0856295333013572  0.4992737522532040  0.4385986920539958
  0.1690089501451879  0.4972696219894814  0.4806342413606242
  0.2523213124198874  0.4969722038001592  0.4385547914778482
  0.3356296058915236  0.4946000930203845  0.4807517523218912
  0.4190388835392655  0.4952631580841163  0.4389338252689494
  0.5023688544086130  0.4930751720044707  0.4812952192909472
  0.5856956195180346  0.4952369691039510  0.4395254027406930
  0.6690612122153953  0.4941794742688934  0.4820474190693503
  0.7522856384691909  0.4976755310682579  0.4395986547400161
  0.8357121863726765  0.4977630027445257  0.4814288080778082
  0.9189140131584196  0.4999674752612799  0.4390259954456560
  0.0023920417252252  0.4991217854632212  0.4808673929388877
  0.0026281811024151  0.4975388747308094  0.5662487566870125
  0.0859491749181313  0.4959783507341013  0.6081686502533260
  0.1690955971744558  0.4953662635670462  0.5660413585855208
  0.2523392567629225  0.4922718659365670  0.6080857832432027
  0.3355674619593553  0.4916878486643639  0.5661089512253110
  0.4187728490396204  0.4880119100720612  0.6082859916149810
  0.5023224267895324  0.4884854032123253  0.5665803977525574
  0.5855172548207767  0.4848215390463147  0.6092597407220705
  0.6692460763203708  0.4891030094677862  0.5671398803885976
  0.7531383411886271  0.4893563184680801  0.6094336290465665
  0.8360328109340166  0.4947835461801945  0.5667578801879951
  0.9195355055376496  0.4959889406108036  0.6085311536010435
  0.0860266632729786  0.4939267992839033  0.6939288386851569
  0.1691814899028636  0.4905415421736576  0.7345957027411845
  0.2523733228169579  0.4894023348593913  0.6938250609442848
  0.3361316676945582  0.4851629199231873  0.7345061689356571
  0.4186251224296083  0.4841132519298965  0.6938726809866236
  0.5033374159438165  0.4779976183400220  0.7343203789509283
  0.5843504186872213  0.4773652103146636  0.6940791932523940
  0.6709729917547115  0.4600315585969867  0.7382664477187325
  0.7547092424967494  0.4840153629679983  0.6943482878987517
  0.8354323520503557  0.4887566692188341  0.7347986202309660
  0.9198092351496501  0.4942961126243568  0.6941428995622491
  0.0022743275485776  0.4940598735664289  0.7347708213373834
  1.0016387269948568  0.5036652213287235  0.2473349583733194
  0.1687958773359539  0.5019566162053165  0.2471055170425088
  0.3359439208265711  0.5012198927245795  0.2473136630703610
  0.6687438070645543  0.5037649716611188  0.2481506393895610
  0.8347368600313554  0.5047024308928989  0.2478876927251980
  0.1691253996796496  0.4882072698375111  0.7993986604340275
  0.3360566398502463  0.4822192899444350  0.7992809833948186
  0.5032877652746468  0.4720496885440239  0.7988345916062852
  0.6688815961531709  0.4852910878464273  0.7981288120695029
  0.8357464352461832  0.4838898258731129  0.7994048178785790
  0.0022822692830113  0.4919689397950990  0.7995647396685602
  0.5027680930238144  0.5021993810995061  0.2478515766775116
  0.6771452765095934  0.3873583862474539  0.7420212751261156
  0.8417223398139773  0.3190369065078956  0.7081168749983836
  0.7825987745959078  0.3417661205904087  0.7202560344596843
  0.8257549506288856  0.2779926598537706  0.6768564067801307
 
  0.00000000E+00  0.00000000E+00  0.00000000E+00
  0.00000000E+00  0.00000000E+00  0.00000000E+00
  0.00000000E+00  0.00000000E+00  0.00000000E+00
  0.00000000E+00  0.00000000E+00  0.00000000E+00
  0.00000000E+00  0.00000000E+00  0.00000000E+00
  0.00000000E+00  0.00000000E+00  0.00000000E+00
  0.00000000E+00  0.00000000E+00  0.00000000E+00
  0.00000000E+00  0.00000000E+00  0.00000000E+00
  0.00000000E+00  0.00000000E+00  0.00000000E+00
  0.00000000E+00  0.00000000E+00  0.00000000E+00
  0.00000000E+00  0.00000000E+00  0.00000000E+00
  0.00000000E+00  0.00000000E+00  0.00000000E+00
  0.00000000E+00  0.00000000E+00  0.00000000E+00
  0.00000000E+00  0.00000000E+00  0.00000000E+00
  0.00000000E+00  0.00000000E+00  0.00000000E+00
  0.00000000E+00  0.00000000E+00  0.00000000E+00
  0.00000000E+00  0.00000000E+00  0.00000000E+00
  0.00000000E+00  0.00000000E+00  0.00000000E+00
  0.00000000E+00  0.00000000E+00  0.00000000E+00
  0.00000000E+00  0.00000000E+00  0.00000000E+00
  0.00000000E+00  0.00000000E+00  0.00000000E+00
  0.00000000E+00  0.00000000E+00  0.00000000E+00
  0.00000000E+00  0.00000000E+00  0.00000000E+00
  0.00000000E+00  0.00000000E+00  0.00000000E+00
  0.00000000E+00  0.00000000E+00  0.00000000E+00
  0.00000000E+00  0.00000000E+00  0.00000000E+00
  0.00000000E+00  0.00000000E+00  0.00000000E+00
  0.00000000E+00  0.00000000E+00  0.00000000E+00
  0.00000000E+00  0.00000000E+00  0.00000000E+00
  0.00000000E+00  0.00000000E+00  0.00000000E+00
  0.00000000E+00  0.00000000E+00  0.00000000E+00
  0.00000000E+00  0.00000000E+00  0.00000000E+00
  0.00000000E+00  0.00000000E+00  0.00000000E+00
  0.00000000E+00  0.00000000E+00  0.00000000E+00
  0.00000000E+00  0.00000000E+00  0.00000000E+00
  0.00000000E+00  0.00000000E+00  0.00000000E+00
  0.00000000E+00  0.00000000E+00  0.00000000E+00
  0.00000000E+00  0.00000000E+00  0.00000000E+00
  0.00000000E+00  0.00000000E+00  0.00000000E+00
  0.00000000E+00  0.00000000E+00  0.00000000E+00
  0.00000000E+00  0.00000000E+00  0.00000000E+00
  0.00000000E+00  0.00000000E+00  0.00000000E+00
  0.00000000E+00  0.00000000E+00  0.00000000E+00
  0.00000000E+00  0.00000000E+00  0.00000000E+00
  0.00000000E+00  0.00000000E+00  0.00000000E+00
  0.00000000E+00  0.00000000E+00  0.00000000E+00
  0.00000000E+00  0.00000000E+00  0.00000000E+00
  0.00000000E+00  0.00000000E+00  0.00000000E+00
  0.00000000E+00  0.00000000E+00  0.00000000E+00
  0.00000000E+00  0.00000000E+00  0.00000000E+00
  0.00000000E+00  0.00000000E+00  0.00000000E+00
  0.00000000E+00  0.00000000E+00  0.00000000E+00
  0.00000000E+00  0.00000000E+00  0.00000000E+00
  0.00000000E+00  0.00000000E+00  0.00000000E+00
  0.00000000E+00  0.00000000E+00  0.00000000E+00
  0.00000000E+00  0.00000000E+00  0.00000000E+00
  0.00000000E+00  0.00000000E+00  0.00000000E+00
  0.00000000E+00  0.00000000E+00  0.00000000E+00
  0.00000000E+00  0.00000000E+00  0.00000000E+00
  0.00000000E+00  0.00000000E+00  0.00000000E+00
  0.00000000E+00  0.00000000E+00  0.00000000E+00
  0.00000000E+00  0.00000000E+00  0.00000000E+00
  0.00000000E+00  0.00000000E+00  0.00000000E+00
  0.00000000E+00  0.00000000E+00  0.00000000E+00
